[Molden Format]
[Title]
 output-oh-radical
[Atoms] (AU)
 O        1     8       0.000000000000       0.000000000000       0.000000000000
 H        2     1       1.833000000000       0.000000000000       0.000000000000
[GTO]
  1 0
 s   6  1.00
      5.4846717000E+03      1.8310998055E-03
      8.2523495000E+02      1.3950098518E-02
      1.8804696000E+02      6.8445092731E-02
      5.2964500000E+01      2.3271427528E-01
      1.6897570000E+01      4.7019295006E-01
      5.7996353000E+00      3.5852086192E-01
 s   3  1.00
      1.5539616000E+01     -1.1077750383E-01
      3.5999336000E+00     -1.4802630511E-01
      1.0137618000E+00      1.1307670390E+00
 p   3  1.00
      1.5539616000E+01      7.0874299543E-02
      3.5999336000E+00      3.3975279781E-01
      1.0137618000E+00      7.2715859531E-01
 s   1  1.00
      2.7000580000E-01      1.0000000000E+00
 p   1  1.00
      2.7000580000E-01      1.0000000000E+00
 d   1  1.00
      8.0000000000E-01      1.0000000000E+00

  2 0
 s   3  1.00
      1.8731137000E+01      3.3494599523E-02
      2.8253937000E+00      2.3472694666E-01
      6.4012170000E-01      8.1375731841E-01
 s   1  1.00
      1.6127780000E-01      1.0000000000E+00

[5D]
[MO]
 Sym=  A
 Ene=     -20.6343493883
 Spin= Alpha
 Occup=   1.00000000
     1     9.955726913015E-01
     2     2.248225616833E-02
     3     1.472601372092E-03
     4    -3.640395132367E-18
     5     3.742884513577E-17
     6    -7.007990675329E-03
     7    -1.833539931274E-03
     8     4.181297854737E-18
     9    -3.641194921613E-17
    10     2.854176885972E-04
    11    -2.251393636770E-19
    12     1.324585250114E-04
    13    -2.860734173923E-04
    14     1.287621871040E-19
    15     2.287495100376E-04
    16     2.596778925612E-03
 Sym=  A
 Ene=      -1.3785630641
 Spin= Alpha
 Occup=   1.00000000
     1    -2.243859831784E-01
     2     5.181005425085E-01
     3     8.664304406377E-02
     4    -4.139042977200E-17
     5    -2.269599289631E-16
     6     5.098290098896E-01
     7     5.686902671049E-02
     8     9.185501583530E-17
     9     5.064208953863E-17
    10     3.679776982974E-03
    11    -1.275853379729E-17
    12     1.305492475968E-02
    13     1.415466687874E-02
    14     1.572668098345E-18
    15     1.343148697026E-01
    16    -2.265326348056E-02
 Sym=  A
 Ene=      -0.6718358408
 Spin= Alpha
 Occup=   1.00000000
     1     6.193863030130E-02
     2    -1.547542451951E-01
     3     5.529172314694E-01
     4    -4.611799473005E-16
     5    -1.370497989538E-15
     6    -2.358052330018E-01
     7     3.434462017403E-01
     8    -3.368056360144E-16
     9    -4.300720265281E-16
    10    -2.619446892653E-02
    11    -5.091916770780E-17
    12    -5.132716990733E-03
    13     3.729920584793E-02
    14     1.750769010161E-17
    15     2.581520944979E-01
    16     1.206500498639E-01
 Sym=  A
 Ene=      -0.6446389920
 Spin= Alpha
 Occup=   1.00000000
     1    -5.453055997734E-17
     2     1.933042223858E-17
     3    -7.243931477478E-16
     4    -3.011859306936E-01
     5    -6.199282428735E-01
     6     5.491145457240E-16
     7    -9.189830262650E-16
     8    -1.995377843608E-01
     9    -4.107067941746E-01
    10    -1.275314411951E-16
    11    -2.570616667927E-02
    12     6.362764431053E-17
    13    -1.548443179541E-16
    14    -1.248908373649E-02
    15    -4.584607288746E-16
    16    -2.111260554898E-16
 Sym=  A
 Ene=      -0.5505345378
 Spin= Alpha
 Occup=   1.00000000
     1    -3.436944030399E-17
     2     5.766113308150E-17
     3    -3.611768980547E-17
     4    -6.007162589628E-01
     5     2.918519806419E-01
     6     1.410375275831E-16
     7     2.712927481744E-16
     8    -4.323963660094E-01
     9     2.100754457023E-01
    10     1.137852762229E-16
    11     1.258361540380E-02
    12    -1.385519127336E-16
    13     1.231444337626E-16
    14    -2.590074034438E-02
    15    -1.004023425029E-16
    16    -1.164335329363E-16
 Sym=  A
 Ene=       0.2198688763
 Spin= Alpha
 Occup=   0.00000000
     1     6.534502528949E-02
     2    -9.678479622878E-02
     3    -2.735363841066E-01
     4    -4.026622697401E-17
     5    -2.504392671625E-17
     6    -8.967104344227E-01
     7    -6.044871665624E-01
     8     4.314380625174E-17
     9     5.958487932155E-18
    10     6.254994917991E-03
    11     3.179718388876E-18
    12    -3.304770917804E-03
    13    -1.603055884761E-02
    14    -5.575259981781E-18
    15     8.735477027360E-02
    16     1.581779775256E+00
 Sym=  A
 Ene=       1.0505370064
 Spin= Alpha
 Occup=   0.00000000
     1    -3.170864956211E-02
     2     8.911494622860E-02
     3     3.123064951895E-01
     4    -2.376109208124E-15
     5    -9.346446053392E-15
     6     4.941243580888E-03
     7     3.188087142101E-01
     8     2.697570986763E-15
     9     1.071965033864E-14
    10     1.182595600644E-01
    11     7.934683312932E-16
    12     1.474862815904E-02
    13    -1.816400735834E-01
    14    -5.409026883049E-17
    15    -1.217620960098E+00
    16     7.169814506461E-01
 Sym=  A
 Ene=       1.0702876180
 Spin= Alpha
 Occup=   0.00000000
     1    -3.411795439007E-16
     2    -4.399123240091E-16
     3     6.817764968383E-16
     4     4.054858322127E-01
     5     8.346077749874E-01
     6     2.692542485985E-15
     7     7.120019697189E-15
     8    -4.638559229070E-01
     9    -9.547503981078E-01
    10     1.272093222574E-15
    11    -1.349254295531E-02
    12     2.333633035493E-16
    13    -1.993782136753E-15
    14    -6.555216920883E-03
    15    -1.279328777277E-14
    16     5.425015699011E-15
 Sym=  A
 Ene=       1.1313492489
 Spin= Alpha
 Occup=   0.00000000
     1    -2.132086778434E-17
     2     2.019477923332E-15
     3     5.455478448673E-16
     4     8.485362011610E-01
     5    -4.122528186316E-01
     6    -3.249297435100E-15
     7    -2.961138238932E-15
     8    -9.451491552395E-01
     9     4.591912551776E-01
    10    -3.633401201228E-16
    11     5.885156516807E-03
    12     3.119505931008E-16
    13     3.289050833642E-16
    14    -1.211336376204E-02
    15     2.819836288574E-15
    16     1.118153603212E-16
 Sym=  A
 Ene=       1.1804030915
 Spin= Alpha
 Occup=   0.00000000
     1     5.635324728652E-02
     2    -6.157247159125E-01
     3     8.447525629033E-01
     4     3.670389622193E-16
     5     1.655748492790E-15
     6     4.264589110789E-01
     7    -1.095256161801E+00
     8    -4.359029779951E-16
     9    -1.983903193525E-15
    10    -1.385916647891E-02
    11    -6.436931303012E-16
    12    -2.908839009929E-03
    13     1.943077410972E-02
    14    -3.449073311425E-16
    15     1.317531663387E-01
    16     2.255916082908E-01
 Sym=  A
 Ene=       1.4994598938
 Spin= Alpha
 Occup=   0.00000000
     1     7.208915777850E-02
     2    -1.481720371518E+00
     3    -4.464325643719E-01
     4     7.907061340302E-16
     5    -2.879233419055E-15
     6     2.140456306032E+00
     7     9.802872236894E-01
     8    -9.385708047684E-16
     9     3.214838876064E-15
    10     6.786307384313E-02
    11     7.181420358125E-17
    12     1.427375966062E-02
    13    -9.509750630071E-02
    14    -6.374203915683E-17
    15    -1.235358952176E-01
    16    -1.060232691419E+00
 Sym=  A
 Ene=       1.9691967880
 Spin= Alpha
 Occup=   0.00000000
     1    -8.671235834906E-17
     2     5.920683890543E-16
     3    -6.185660946008E-16
     4     2.526488537855E-03
     5     5.200248219783E-03
     6    -1.536416921560E-16
     7     1.395904011763E-15
     8     1.266741938148E-02
     9     2.607323330414E-02
    10    -9.442622723977E-16
    11    -8.989950648622E-01
    12    -2.641357054367E-15
    13    -6.679705097476E-16
    14    -4.367677524167E-01
    15    -1.223579592706E-15
    16     2.894651836003E-16
 Sym=  A
 Ene=       2.0251313427
 Spin= Alpha
 Occup=   0.00000000
     1     9.572918968393E-17
     2     4.771973404999E-16
     3     3.986201807470E-16
     4    -5.873542379249E-03
     5     2.853601764880E-03
     6    -1.709140747023E-15
     7    -1.173867759012E-15
     8    -2.519253808275E-02
     9     1.223954242481E-02
    10    -8.102092578294E-14
    11    -4.367745816651E-01
    12     1.038604995898E-13
    13    -4.787057987106E-14
    14     8.990091214417E-01
    15     1.006585112360E-15
    16     6.690158512618E-16
 Sym=  A
 Ene=       2.0287811336
 Spin= Alpha
 Occup=   0.00000000
     1     4.932870720549E-15
     2     2.918810572047E-14
     3     1.002508896102E-14
     4    -2.699889557016E-16
     5     3.462399661541E-16
     6    -9.419688199877E-14
     7    -6.653548896363E-14
     8    -4.127429080375E-15
     9     1.747418860821E-15
    10     6.808025697810E-01
    11    -5.957202686208E-14
    12    -6.180699647339E-01
    13     3.930615469280E-01
    14     1.247702859539E-13
    15     8.104340173459E-14
    16     1.919315126689E-14
 Sym=  A
 Ene=       2.0293211660
 Spin= Alpha
 Occup=   0.00000000
     1    -4.354674412042E-03
     2    -2.501072287130E-02
     3    -8.440126454167E-03
     4     1.012904271645E-16
     5    -8.622852470603E-18
     6     8.160923001229E-02
     7     5.743206607193E-02
     8    -9.641102674494E-16
     9     3.257891388640E-16
    10    -5.524416324950E-01
    11    -7.619288961663E-15
    12    -7.852262283529E-01
    13    -2.778726768449E-01
    14     2.270937813421E-14
    15    -6.961008116245E-02
    16    -1.668057333219E-02
 Sym=  A
 Ene=       2.7493445839
 Spin= Alpha
 Occup=   0.00000000
     1    -1.747422718365E-02
     2    -3.410682407697E-01
     3    -5.763768622331E-02
     4     1.231144499028E-16
     5    -3.103429362124E-16
     6     8.591248913411E-01
     7     8.005057112333E-01
     8    -2.876493653723E-16
     9     5.428244942300E-16
    10    -5.731380723901E-01
    11    -1.800575133001E-17
    12     2.778219768783E-02
    13     1.036390401583E+00
    14    -1.943997459949E-17
    15    -1.248808475895E+00
    16    -6.265613609802E-02
 Sym=  A
 Ene=     -20.5942716642
 Spin= Beta
 Occup=   1.00000000
     1     9.961404962647E-01
     2     1.980910027375E-02
     3     1.360735004357E-03
     4    -4.197313110119E-18
     5     5.539777631843E-17
     6    -6.291801896739E-03
     7    -1.566914025974E-03
     8     4.909044021962E-18
     9    -5.381545985372E-17
    10    -4.488810025296E-04
    11    -1.417706437640E-19
    12    -5.332153436180E-04
    13    -6.097021895329E-05
    14     1.422471627472E-18
    15     2.532267631901E-05
    16     2.319551862374E-03
 Sym=  A
 Ene=      -1.2224211448
 Spin= Beta
 Occup=   1.00000000
     1    -2.147590108361E-01
     2     4.783861690537E-01
     3     9.714504954885E-02
     4     1.513672750755E-17
     5     2.329297509713E-17
     6     5.040269944451E-01
     7     5.744994073223E-02
     8     1.435528799212E-18
     9    -5.527081952279E-17
    10    -2.717892665661E-02
    11     7.021544596028E-18
    12    -1.591460439136E-02
    13     2.205034861462E-02
    14     3.357880523042E-18
    15     1.709829426641E-01
    16     2.637274379068E-03
 Sym=  A
 Ene=      -0.6283675543
 Spin= Beta
 Occup=   1.00000000
     1    -7.391608175444E-02
     2     1.734623558377E-01
     3    -5.220801630323E-01
     4    -2.325657827052E-18
     5    -6.032026263796E-17
     6     2.923754445025E-01
     7    -3.401166644643E-01
     8     9.284995964725E-17
     9    -1.718048185597E-16
    10     1.262494758648E-02
    11    -1.054516882207E-18
    12    -6.166996064680E-03
    13    -3.156434888483E-02
    14    -4.800068085368E-18
    15    -2.702075231546E-01
    16    -1.456880223622E-01
 Sym=  A
 Ene=      -0.5038615305
 Spin= Beta
 Occup=   1.00000000
     1     1.348014596152E-17
     2     2.050914881949E-17
     3     2.055831479719E-17
     4     5.837784926916E-01
     5    -2.836229364632E-01
     6    -2.274949498001E-16
     7    -3.850524595304E-17
     8     4.511057440412E-01
     9    -2.191652097193E-01
    10     9.995592866963E-17
    11    -1.184614245750E-02
    12     1.767434030609E-16
    13     1.840866900622E-17
    14     2.438280653281E-02
    15     1.764162107204E-16
    16     9.181431993363E-17
 Sym=  A
 Ene=       0.1326307108
 Spin= Beta
 Occup=   0.00000000
     1    -3.179418843245E-17
     2     1.803989809695E-17
     3    -7.962711006017E-18
     4     2.143760668494E-01
     5     4.412482951312E-01
     6     1.468456633257E-16
     7     1.118095433971E-17
     8     2.879902828545E-01
     9     5.927677617726E-01
    10    -4.034206190457E-17
    11     2.465907061935E-02
    12     8.691620230471E-17
    13    -4.327538603915E-17
    14     1.198036259826E-02
    15     2.308496855742E-17
    16    -2.249068826921E-16
 Sym=  A
 Ene=       0.2330250161
 Spin= Beta
 Occup=   0.00000000
     1     6.909582062148E-02
     2    -8.820860599396E-02
     3    -2.757491238375E-01
     4     3.881774530680E-17
     5     6.490038423707E-17
     6    -9.368268910014E-01
     7    -6.299957477791E-01
     8     3.398698709794E-17
     9     3.066054979317E-17
    10     1.396301398374E-02
    11     1.323622772594E-18
    12     2.980497465839E-03
    13    -1.949796386422E-02
    14     1.085921632378E-18
    15     6.741995665455E-02
    16     1.603228647670E+00
 Sym=  A
 Ene=       1.0633919390
 Spin= Beta
 Occup=   0.00000000
     1     3.913153974068E-02
     2    -1.024487055860E-01
     3    -3.032343564708E-01
     4     1.875882520228E-16
     5    -4.710579696704E-16
     6    -4.588284135887E-02
     7    -3.677140941119E-01
     8    -1.891373387941E-16
     9     3.608186169370E-16
    10    -9.162282527153E-02
    11    -1.092390202640E-16
    12     1.292886157015E-02
    13     1.790253879072E-01
    14    -2.282509856528E-17
    15     1.231224573764E+00
    16    -6.861126739981E-01
 Sym=  A
 Ene=       1.1557514463
 Spin= Beta
 Occup=   0.00000000
     1    -4.369468424236E-18
     2    -6.838069244735E-16
     3    -3.339823089737E-15
     4    -8.602875347607E-01
     5     4.179620864183E-01
     6     2.006576532373E-15
     7     4.619422413533E-15
     8     9.363667813885E-01
     9    -4.549244267624E-01
    10    -3.059929489546E-16
    11    -5.992777340154E-03
    12    -4.125173028536E-16
    13    -1.114989903925E-16
    14     1.233487871714E-02
    15    -1.476489161246E-16
    16    -2.313346998652E-15
 Sym=  A
 Ene=       1.2097233410
 Spin= Beta
 Occup=   0.00000000
     1     5.639855098557E-02
     2    -5.868277807838E-01
     3     8.708511466968E-01
     4    -1.979324224303E-15
     5     2.092937139850E-15
     6     3.716862877300E-01
     7    -1.104999323307E+00
     8     2.185216338202E-15
     9    -2.399856694755E-15
    10    -4.575270751456E-03
    11    -4.744750677998E-17
    12     5.510284007011E-03
    13     1.658925218682E-02
    14     6.995601763403E-17
    15     1.213197257791E-01
    16     2.581639717810E-01
 Sym=  A
 Ene=       1.2721781602
 Spin= Beta
 Occup=   0.00000000
     1     2.333557489281E-16
     2    -4.397569306236E-15
     3    -2.637980454607E-15
     4     4.573596109632E-01
     5     9.413790987274E-01
     6     6.636019076119E-15
     7     4.310427150922E-15
     8    -4.148070869248E-01
     9    -8.537936281970E-01
    10    -1.305338003629E-16
    11    -8.043767471844E-03
    12     1.054168662596E-16
    13    -3.157301157233E-16
    14    -3.907983899977E-03
    15    -3.151562171768E-16
    16    -3.680168999555E-15
 Sym=  A
 Ene=       1.5454962509
 Spin= Beta
 Occup=   0.00000000
     1    -7.576335646406E-02
     2     1.499916183689E+00
     3     4.363198641189E-01
     4     1.394350798885E-16
     5     4.605257204533E-15
     6    -2.129502923138E+00
     7    -9.427337694743E-01
     8     2.048998398454E-16
     9    -4.405389730195E-15
    10    -6.378245475857E-02
    11    -6.363751772628E-17
    12    -6.122729970904E-03
    13     1.008467603081E-01
    14     1.550142700186E-17
    15     1.118740437258E-01
    16     1.037660266729E+00
 Sym=  A
 Ene=       2.0365327231
 Spin= Beta
 Occup=   0.00000000
     1     4.507782189746E-17
     2    -6.518392553786E-17
     3     4.397382436530E-17
     4     4.029388184793E-03
     5    -1.957637911346E-03
     6    -8.977327382754E-17
     7    -1.894331510395E-16
     8     2.508117557624E-02
     9    -1.218543806587E-02
    10     1.177414514302E-15
    11     4.367937421269E-01
    12    -6.210417331442E-15
    13     6.484313142729E-16
    14    -8.990485592447E-01
    15     1.536958042811E-16
    16     1.023657591953E-17
 Sym=  A
 Ene=       2.0686079915
 Spin= Beta
 Occup=   0.00000000
     1     8.481898875215E-18
     2    -6.193388320722E-17
     3     5.814833213284E-17
     4     1.787830833479E-03
     5     3.679875831523E-03
     6     1.561658782419E-18
     7     2.383766910773E-18
     8     1.160972590458E-02
     9     2.389619250704E-02
    10     2.129654681136E-15
    11    -8.990896564906E-01
    12    -5.018093967212E-15
    13     1.091972515768E-15
    14    -4.368137088124E-01
    15    -9.086621098416E-17
    16     9.322535483050E-17
 Sym=  A
 Ene=       2.1271374827
 Spin= Beta
 Occup=   0.00000000
     1    -8.503377732165E-16
     2     3.549752921544E-15
     3     2.161369691256E-16
     4     6.909284707987E-17
     5     4.301056735712E-16
     6     5.529580518911E-16
     7     1.753251414679E-15
     8    -3.835608479923E-16
     9    -3.904453403229E-16
    10     6.808025697804E-01
    11     2.509374767717E-15
    12    -6.180699647347E-01
    13     3.930615469277E-01
    14     6.759745824655E-15
    15    -3.379632054054E-15
    16     1.134811246063E-15
 Sym=  A
 Ene=       2.1284793292
 Spin= Beta
 Occup=   0.00000000
     1     6.442185882404E-03
     2    -2.083553112405E-02
     3     5.369423821209E-05
     4     4.761695951947E-16
     5    -6.570316086695E-16
     6    -1.680112359530E-02
     7    -2.512389522937E-02
     8    -5.364914808568E-16
     9     4.128628415109E-16
    10    -5.226179539213E-01
    11     3.708637932114E-16
    12    -7.855856660138E-01
    13    -3.300940014621E-01
    14     5.059416965439E-15
    15     4.674924425691E-02
    16    -8.885758501818E-03
 Sym=  A
 Ene=       2.7800996671
 Spin= Beta
 Occup=   0.00000000
     1    -1.318720123445E-02
     2    -3.599938941314E-01
     3    -5.598488187193E-02
     4     1.214901621323E-16
     5    -3.090989296952E-16
     6     8.575180308886E-01
     7     7.946075388903E-01
     8    -3.095026453263E-16
     9     5.327534770187E-16
    10    -6.053875192290E-01
    11    -2.430676884476E-17
    12    -1.758406596169E-02
    13     1.020911862053E+00
    14     1.981444568140E-17
    15    -1.232792132546E+00
    16    -6.751679061661E-02
