[Molden Format]
[Title]
 output-h2o-trimer-opt
[Atoms] (AU)
 O        1     8       3.152797704948      -0.210794843894       0.140307451055
 H        2     1       2.093435450708       1.223498860610      -0.141187714307
 H        3     1       3.882485342916       0.039405906450       1.755876651223
 O        4     8      -1.389855986092       2.836406512663       0.139263544604
 H        5     1      -2.108497101740       1.204113089901      -0.140350383026
 H        6     1      -1.978177912229       3.339771909149       1.756455554694
 O        7     8      -1.762149046977      -2.624564307894       0.139220005043
 H        8     1       0.013083607469      -2.425293692641      -0.141121507189
 H        9     1      -1.908791237417      -3.382543434364       1.758203107230
[GTO]
  1 0
 s   6  1.00
      5.4846717000E+03      1.8310998055E-03
      8.2523495000E+02      1.3950098518E-02
      1.8804696000E+02      6.8445092731E-02
      5.2964500000E+01      2.3271427528E-01
      1.6897570000E+01      4.7019295006E-01
      5.7996353000E+00      3.5852086192E-01
 s   3  1.00
      1.5539616000E+01     -1.1077750383E-01
      3.5999336000E+00     -1.4802630511E-01
      1.0137618000E+00      1.1307670390E+00
 p   3  1.00
      1.5539616000E+01      7.0874299543E-02
      3.5999336000E+00      3.3975279781E-01
      1.0137618000E+00      7.2715859531E-01
 s   1  1.00
      2.7000580000E-01      1.0000000000E+00
 p   1  1.00
      2.7000580000E-01      1.0000000000E+00
 d   1  1.00
      8.0000000000E-01      1.0000000000E+00

  2 0
 s   3  1.00
      1.8731137000E+01      3.3494599523E-02
      2.8253937000E+00      2.3472694666E-01
      6.4012170000E-01      8.1375731841E-01
 s   1  1.00
      1.6127780000E-01      1.0000000000E+00

  3 0
 s   3  1.00
      1.8731137000E+01      3.3494599523E-02
      2.8253937000E+00      2.3472694666E-01
      6.4012170000E-01      8.1375731841E-01
 s   1  1.00
      1.6127780000E-01      1.0000000000E+00

  4 0
 s   6  1.00
      5.4846717000E+03      1.8310998055E-03
      8.2523495000E+02      1.3950098518E-02
      1.8804696000E+02      6.8445092731E-02
      5.2964500000E+01      2.3271427528E-01
      1.6897570000E+01      4.7019295006E-01
      5.7996353000E+00      3.5852086192E-01
 s   3  1.00
      1.5539616000E+01     -1.1077750383E-01
      3.5999336000E+00     -1.4802630511E-01
      1.0137618000E+00      1.1307670390E+00
 p   3  1.00
      1.5539616000E+01      7.0874299543E-02
      3.5999336000E+00      3.3975279781E-01
      1.0137618000E+00      7.2715859531E-01
 s   1  1.00
      2.7000580000E-01      1.0000000000E+00
 p   1  1.00
      2.7000580000E-01      1.0000000000E+00
 d   1  1.00
      8.0000000000E-01      1.0000000000E+00

  5 0
 s   3  1.00
      1.8731137000E+01      3.3494599523E-02
      2.8253937000E+00      2.3472694666E-01
      6.4012170000E-01      8.1375731841E-01
 s   1  1.00
      1.6127780000E-01      1.0000000000E+00

  6 0
 s   3  1.00
      1.8731137000E+01      3.3494599523E-02
      2.8253937000E+00      2.3472694666E-01
      6.4012170000E-01      8.1375731841E-01
 s   1  1.00
      1.6127780000E-01      1.0000000000E+00

  7 0
 s   6  1.00
      5.4846717000E+03      1.8310998055E-03
      8.2523495000E+02      1.3950098518E-02
      1.8804696000E+02      6.8445092731E-02
      5.2964500000E+01      2.3271427528E-01
      1.6897570000E+01      4.7019295006E-01
      5.7996353000E+00      3.5852086192E-01
 s   3  1.00
      1.5539616000E+01     -1.1077750383E-01
      3.5999336000E+00     -1.4802630511E-01
      1.0137618000E+00      1.1307670390E+00
 p   3  1.00
      1.5539616000E+01      7.0874299543E-02
      3.5999336000E+00      3.3975279781E-01
      1.0137618000E+00      7.2715859531E-01
 s   1  1.00
      2.7000580000E-01      1.0000000000E+00
 p   1  1.00
      2.7000580000E-01      1.0000000000E+00
 d   1  1.00
      8.0000000000E-01      1.0000000000E+00

  8 0
 s   3  1.00
      1.8731137000E+01      3.3494599523E-02
      2.8253937000E+00      2.3472694666E-01
      6.4012170000E-01      8.1375731841E-01
 s   1  1.00
      1.6127780000E-01      1.0000000000E+00

  9 0
 s   3  1.00
      1.8731137000E+01      3.3494599523E-02
      2.8253937000E+00      2.3472694666E-01
      6.4012170000E-01      8.1375731841E-01
 s   1  1.00
      1.6127780000E-01      1.0000000000E+00

[5D]
[MO]
 Sym=  A
 Ene=     -20.5561072782
 Spin= Alpha
 Occup=   2.00000000
     1    -4.501801584165E-03
     2    -2.928801337706E-04
     3     1.175771785840E-05
     4    -5.453600689349E-05
     5     4.084177755412E-05
     6     7.225155352574E-04
     7    -2.417102583874E-04
     8     3.707931079496E-04
     9    -1.748907406408E-04
    10    -2.982228737497E-05
    11     1.575611951275E-05
    12    -1.872980000543E-05
    13    -1.372757880521E-05
    14    -6.207377391989E-05
    15    -3.991919606706E-05
    16    -1.002521766979E-03
    17    -3.509890191802E-05
    18     1.969942415603E-04
    19    -9.953815428071E-01
    20    -2.231117929128E-02
    21     8.213104309565E-04
    22     8.370180080782E-04
    23    -9.542428274706E-04
    24     8.902041910370E-03
    25    -9.310237942679E-04
    26    -1.304352177070E-03
    27     9.065567149325E-04
    28     1.735907261434E-05
    29    -9.289297204600E-05
    30     1.870142861006E-04
    31    -1.110367328876E-04
    32     1.135142612547E-04
    33    -2.711618392464E-04
    34    -2.758012091419E-03
    35    -2.693806604322E-04
    36    -1.708452989761E-03
    37    -2.798285721617E-02
    38    -8.088788816284E-04
    39     2.179880292041E-05
    40    -1.007388718224E-04
    41     1.111618895730E-05
    42     5.729756547532E-04
    43    -1.287007749046E-04
    44     5.439922013280E-04
    45    -1.200817457974E-04
    46    -6.582801148225E-05
    47    -6.639392225019E-07
    48    -1.465890843925E-05
    49    -8.179151775964E-05
    50    -2.406970991615E-05
    51    -4.719444898641E-05
    52     1.514290556794E-04
    53     4.571251751781E-06
    54     1.223395867873E-04
 Sym=  A
 Ene=     -20.5560345300
 Spin= Alpha
 Occup=   2.00000000
     1    -5.084223371536E-03
     2    -2.898449336937E-04
     3     6.908646127774E-05
     4     9.700514137746E-05
     5     3.180364714786E-05
     6     3.462197545659E-04
     7    -3.852505460310E-04
     8    -4.294059259150E-04
     9    -1.362377519848E-04
    10    -6.574391233600E-05
    11     7.731524756045E-06
    12     7.675427961529E-06
    13     2.140251748162E-05
    14     8.839010077623E-05
    15    -4.062330468852E-05
    16     2.477374220765E-04
    17     1.250744069293E-05
    18     1.556841325638E-04
    19     2.798650664193E-02
    20     4.398448325455E-04
    21     1.754654930390E-05
    22     9.968444133208E-06
    23     7.098819514189E-05
    24     4.229314334389E-04
    25    -1.838995339681E-04
    26    -3.476989663332E-04
    27    -1.999691847010E-04
    28    -2.849181523190E-05
    29     1.140320878269E-05
    30     1.665996703897E-05
    31    -4.432518674147E-05
    32     4.057748560031E-05
    33    -2.875677540767E-05
    34    -9.159426104714E-04
    35    -2.748056022202E-05
    36     2.491379671395E-04
    37    -9.953781354504E-01
    38    -2.229643397952E-02
    39    -1.132261785517E-03
    40     2.908686529993E-04
    41    -9.588470074036E-04
    42     8.868637920410E-03
    43     1.586502340745E-03
    44    -1.662739894679E-04
    45     9.170638490972E-04
    46     1.989621049813E-05
    47    -1.159757120080E-04
    48    -1.730326994202E-04
    49     1.567876729676E-04
    50     4.158517575656E-05
    51    -2.709014245829E-04
    52    -2.738159060015E-03
    53    -2.677680129921E-04
    54    -1.720179697762E-03
 Sym=  A
 Ene=     -20.5556450271
 Spin= Alpha
 Occup=   2.00000000
     1     9.957603094395E-01
     2     2.231678139057E-02
     3    -3.157318007868E-04
     4     1.123960095105E-03
     5     9.588418090932E-04
     6    -8.886666098488E-03
     7     6.574930209172E-04
     8    -1.444365933880E-03
     9    -9.121882194402E-04
    10    -1.731838707363E-05
    11    -2.062140219912E-04
    12     1.439669572526E-05
    13     4.130931597396E-05
    14     1.529275649888E-04
    15     2.682595423954E-04
    16     2.735601789723E-03
    17     2.617347043458E-04
    18     1.723258261496E-03
    19    -4.338054741649E-03
    20     8.352633549420E-05
    21     1.254198891810E-04
    22    -3.991663821147E-06
    23    -4.205136584650E-05
    24    -2.799398601173E-04
    25    -5.707490507360E-04
    26     1.156388941661E-04
    27     1.495875311569E-04
    28     6.668479052107E-05
    29     9.348049181231E-06
    30    -1.568120102082E-06
    31    -6.602747670745E-05
    32     6.307986910885E-05
    33     3.828643410093E-05
    34    -2.510483086095E-04
    35    -1.486535439043E-05
    36    -1.764406619282E-04
    37    -5.189761357448E-03
    38     6.935890585165E-05
    39     4.420314377204E-05
    40    -1.756104278301E-05
    41    -4.868686832476E-05
    42    -6.218198092092E-04
    43    -4.311821469589E-04
    44    -7.652137272008E-06
    45     1.776500975487E-04
    46     2.771074091137E-05
    47     2.277649982744E-05
    48     2.310126347519E-06
    49    -6.166080901009E-05
    50    -1.976470134531E-05
    51     3.491735742242E-05
    52     9.779018432559E-04
    53     3.318473998432E-05
    54    -2.074480743326E-04
 Sym=  A
 Ene=      -1.3588978207
 Spin= Alpha
 Occup=   2.00000000
     1    -1.247583337285E-01
     2     2.697471117736E-01
     3    -1.212390224140E-02
     4     3.918922758256E-02
     5     3.336633740536E-02
     6     2.927362110856E-01
     7    -1.345326566618E-02
     8     2.147305487779E-02
     9     1.801031529509E-02
    10     1.388131519620E-03
    11     6.549111603874E-03
    12     1.764866434683E-03
    13    -1.423077596381E-03
    14    -5.876696699016E-03
    15     7.616736456980E-02
    16    -9.823684743225E-03
    17     7.585932835342E-02
    18    -2.024051948856E-03
    19    -1.250914270523E-01
    20     2.704024701432E-01
    21    -2.804914997896E-02
    22    -3.025032031277E-02
    23     3.329716134219E-02
    24     2.938632609338E-01
    25    -1.184015499839E-02
    26    -2.252870864167E-02
    27     1.802123158011E-02
    28     1.336643558802E-03
    29    -4.861430755346E-03
    30     4.750713435521E-03
    31    -4.276460717595E-03
    32     4.198111138239E-03
    33     7.625360882570E-02
    34    -1.001350820247E-02
    35     7.584457853001E-02
    36    -1.917138743913E-03
    37    -1.182724141809E-01
    38     2.555625825718E-01
    39     3.787185372676E-02
    40    -8.295844671088E-03
    41     3.146134889426E-02
    42     2.778882324972E-01
    43     2.395857166077E-02
    44     1.456372647178E-03
    45     1.703700562025E-02
    46     1.245530708723E-03
    47    -1.629694368916E-03
    48    -6.197108598851E-03
    49     5.416238978916E-03
    50     1.616038286111E-03
    51     7.213096338097E-02
    52    -8.891055229975E-03
    53     7.156702011120E-02
    54    -1.732865800753E-03
 Sym=  A
 Ene=      -1.3442059531
 Spin= Alpha
 Occup=   2.00000000
     1    -1.529821559215E-01
     2     3.325961342182E-01
     3    -8.546255624875E-03
     4     4.673682390504E-02
     5     4.247989990579E-02
     6     3.621003431530E-01
     7    -9.020585166294E-03
     8     3.054242642904E-02
     9     2.324920452347E-02
    10     2.901508285637E-03
    11     8.371444766741E-03
    12     2.063805282178E-03
    13    -2.717159287121E-03
    14    -7.433514985291E-03
    15     8.614532453477E-02
    16    -2.338564481737E-02
    17     9.547130233764E-02
    18    -3.829115024859E-03
    19     1.519605252876E-01
    20    -3.322896902919E-01
    21     3.912433937344E-02
    22     3.202400432775E-02
    23    -4.176696331500E-02
    24    -3.542194161428E-01
    25     2.779965260636E-02
    26     2.194310707079E-02
    27    -2.428421163184E-02
    28    -3.316339025116E-03
    29     6.034725465293E-03
    30    -5.947270809521E-03
    31     5.907823973919E-03
    32    -6.995433025407E-03
    33    -9.004799366303E-02
    34     1.960505411312E-02
    35    -9.510973308952E-02
    36     5.602741232316E-03
    37     6.223423120313E-04
    38     5.392560303064E-04
    39     2.354639179814E-03
    40    -1.766512461274E-03
    41    -3.826992852848E-04
    42    -7.026609067411E-03
    43     1.852920962300E-03
    44    -5.460613649092E-03
    45     1.080570386849E-03
    46     4.658873293322E-04
    47     1.667719911584E-04
    48     7.463149107649E-05
    49     1.217589710150E-03
    50     3.700875561679E-04
    51     3.995527346841E-03
    52     3.733031954033E-03
    53     1.329130406301E-04
    54    -1.830303723388E-03
 Sym=  A
 Ene=      -1.3436944759
 Spin= Alpha
 Occup=   2.00000000
     1     8.425740378243E-02
     2    -1.854030604066E-01
     3     4.221035262086E-03
     4    -2.932133165872E-02
     5    -2.318379084062E-02
     6    -1.930928030667E-01
     7     4.546203136805E-04
     8    -2.207195354023E-02
     9    -1.418999613123E-02
    10    -2.174908075245E-03
    11    -4.484870747886E-03
    12    -1.268334443909E-03
    13     1.862879227962E-03
    14     5.565366155241E-03
    15    -5.233124278132E-02
    16     8.948250615485E-03
    17    -5.322903817344E-02
    18     4.274266626630E-03
    19     8.554424497951E-02
    20    -1.849444515426E-01
    21     1.878260448135E-02
    22     1.644388792530E-02
    23    -2.378201036846E-02
    24    -2.057887062585E-01
    25     9.221855131282E-03
    26     1.342276050171E-02
    27    -1.235837000068E-02
    28    -1.346538833105E-03
    29     3.349771871335E-03
    30    -3.532553114100E-03
    31     2.233455686866E-03
    32    -2.932285960641E-03
    33    -4.559224914242E-02
    34     1.535374251634E-02
    35    -5.299350818820E-02
    36     1.087039899082E-03
    37    -1.791240885495E-01
    38     3.904870248159E-01
    39     5.379726097725E-02
    40    -1.956701422952E-02
    41     4.938976798506E-02
    42     4.210816551288E-01
    43     3.745949092293E-02
    44    -1.176141529061E-02
    45     2.796164955313E-02
    46     3.647987388058E-03
    47    -2.678415598581E-03
    48    -9.655079686020E-03
    49     9.842137597234E-03
    50     1.804471648036E-03
    51     1.032651290502E-01
    52    -2.493017481993E-02
    53     1.116819167723E-01
    54    -5.449948212664E-03
 Sym=  A
 Ene=      -0.7335636892
 Spin= Alpha
 Occup=   2.00000000
     1     1.658223619959E-03
     2    -6.737878815660E-03
     3    -2.080934138379E-01
     4     9.254642993558E-02
     5    -1.933864402069E-01
     6     6.876894369458E-03
     7    -1.358102904828E-01
     8     5.471206660374E-02
     9    -1.194621481034E-01
    10    -2.192800558155E-02
    11    -8.928072846134E-03
    12    -7.663013406790E-03
    13    -3.536150727135E-03
    14    -1.498239310105E-02
    15     1.237161068554E-01
    16     4.562669053667E-02
    17    -1.407299115625E-01
    18    -5.842220488234E-02
    19     1.802351584399E-03
    20    -7.029770754040E-03
    21     2.619641850703E-02
    22    -2.169141072440E-01
    23    -1.852041966883E-01
    24     6.057261319062E-03
    25     2.234613382432E-02
    26    -1.391538861404E-01
    27    -1.146321823201E-01
    28    -2.104696751247E-02
    29     1.082878225988E-02
    30    -3.717400926858E-03
    31    -1.074073064504E-02
    32     9.952352492220E-03
    33     1.175942170783E-01
    34     4.384474961177E-02
    35    -1.352145613948E-01
    36    -5.629257050844E-02
    37     1.844484939809E-03
    38    -7.099970173551E-03
    39     1.739574194588E-01
    40     1.287356825554E-01
    41    -1.829839284394E-01
    42     5.777643200082E-03
    43     1.090191174306E-01
    44     8.719657057239E-02
    45    -1.132572830390E-01
    46    -2.085102158685E-02
    47    -2.071502920226E-03
    48     1.102958906817E-02
    49     1.388866776996E-02
    50     4.304477625021E-03
    51     1.169997852691E-01
    52     4.367950730230E-02
    53    -1.336199412292E-01
    54    -5.567579979294E-02
 Sym=  A
 Ene=      -0.7110307098
 Spin= Alpha
 Occup=   2.00000000
     1    -3.534966177283E-03
     2     7.163388645371E-03
     3    -2.446023607781E-01
     4     1.873124490678E-01
     5    -2.704723131072E-01
     6     2.061852607170E-02
     7    -1.497842183080E-01
     8     1.212591286907E-01
     9    -1.662058761793E-01
    10    -2.890555373529E-02
    11    -1.075795425903E-02
    12    -8.772441700206E-03
    13    -9.744311057319E-03
    14    -2.217749855934E-02
    15     1.815197775805E-01
    16     6.488969308125E-02
    17    -1.812240446937E-01
    18    -8.191912671871E-02
    19    -3.046796451242E-05
    20     1.033116825923E-06
    21     6.674175532052E-02
    22     1.889672389461E-01
    23     1.529781666025E-01
    24    -1.932136001433E-03
    25     5.082473274077E-02
    26     1.172895692186E-01
    27     9.364144437932E-02
    28     1.684493058826E-02
    29    -6.350985032014E-03
    30     2.907960027105E-03
    31     9.242826879693E-03
    32    -1.438927317338E-02
    33    -1.213761620274E-01
    34    -4.235454891122E-02
    35     9.887115844099E-02
    36     4.713303835299E-02
    37     3.316379334134E-03
    38    -6.423682573796E-03
    39    -9.953317322685E-02
    40    -8.983718452824E-02
    41     1.296829363147E-01
    42    -1.847535127801E-02
    43    -6.065637235954E-02
    44    -6.026502252920E-02
    45     8.038723720090E-02
    46     1.348376518432E-02
    47     1.753538604668E-03
    48    -7.541206629814E-03
    49    -8.022521583788E-03
    50    -2.058059514476E-03
    51    -6.803967817127E-02
    52    -2.588101085191E-02
    53     9.101137657747E-02
    54     3.899283516661E-02
 Sym=  A
 Ene=      -0.7103081924
 Spin= Alpha
 Occup=   2.00000000
     1     1.876032735657E-03
     2    -3.579417028488E-03
     3    -4.068775928428E-04
     4     6.355810815487E-02
     5    -1.231960983614E-02
     6    -9.332095303576E-03
     7     4.413689676243E-03
     8     4.608019059029E-02
     9    -6.955515594543E-03
    10    -1.823990402353E-03
    11     3.441101248094E-05
    12     8.052717906324E-04
    13    -3.171957344990E-03
    14    -4.071935934574E-03
    15     3.006684826882E-02
    16     9.153731026367E-03
    17    -3.833821921729E-03
    18    -4.353828375542E-03
    19    -3.880176127011E-03
    20     7.728636443037E-03
    21    -7.155894272653E-03
    22    -2.509796226844E-01
    23    -2.301756887952E-01
    24     2.206716776695E-02
    25    -4.923434603721E-03
    26    -1.569632473837E-01
    27    -1.419915774745E-01
    28    -2.436233561274E-02
    29     1.182252020989E-02
    30    -4.085962065748E-03
    31    -1.154894257510E-02
    32     1.474068723737E-02
    33     1.434342930258E-01
    34     5.242400429988E-02
    35    -1.563229835023E-01
    36    -6.980276299119E-02
    37     2.082280712030E-03
    38    -4.244029718348E-03
    39    -2.787697746845E-01
    40    -9.018379605660E-02
    41     2.455269107850E-01
    42    -1.334726539183E-02
    43    -1.778802708170E-01
    44    -4.896495841380E-02
    45     1.508537375165E-01
    46     2.655751637383E-02
    47     1.644518702810E-03
    48    -1.197158007361E-02
    49    -2.381005729750E-02
    50    -2.054536021065E-03
    51    -1.753563669003E-01
    52    -6.247667242412E-02
    53     1.625030779264E-01
    54     7.514643104386E-02
 Sym=  A
 Ene=      -0.5882267096
 Spin= Alpha
 Occup=   2.00000000
     1    -3.810017067511E-02
     2     8.856994842334E-02
     3     2.671782422468E-02
     4    -1.729163373894E-01
     5    -2.105720660674E-01
     6     1.685661720452E-01
     7     2.083868719255E-02
     8    -1.188281412950E-01
     9    -1.542793681677E-01
    10    -6.687711306953E-03
    11     1.418787746882E-04
    12    -1.403872011090E-02
    13     5.301481628673E-03
    14     2.804185899094E-03
    15    -5.094192372631E-02
    16    -6.401032131097E-02
    17    -9.003000038800E-02
    18    -4.585255803917E-02
    19     5.306713311414E-02
    20    -1.267513715294E-01
    21    -3.050855328125E-01
    22    -1.929669778271E-01
    23     2.582038642610E-01
    24    -2.182012235141E-01
    25    -2.253490647678E-01
    26    -1.437007896890E-01
    27     1.858825167473E-01
    28     4.371205601371E-03
    29    -1.915579388568E-02
    30    -9.626158704006E-03
    31    -8.641637720293E-04
    32     1.617947356439E-02
    33     1.042059591191E-01
    34     5.804586054155E-02
    35     1.202274004342E-01
    36     6.097344855815E-02
    37    -1.312113965068E-02
    38     3.346666799921E-02
    39    -1.451963645348E-01
    40     1.015698057325E-01
    41    -3.932449001666E-02
    42     4.324321919668E-02
    43    -1.151749415077E-01
    44     8.023259087276E-02
    45    -2.559537357533E-02
    46     2.312585678503E-03
    47    -5.042439408026E-03
    48     4.558451549740E-03
    49    -8.834241396300E-03
    50     3.868610690841E-03
    51    -4.958258728947E-02
    52     6.012432560683E-03
    53    -2.664788327791E-02
    54    -1.272121774513E-02
 Sym=  A
 Ene=      -0.5877173467
 Spin= Alpha
 Occup=   2.00000000
     1     3.820072132295E-02
     2    -9.243147566659E-02
     3    -1.424364172997E-04
     4     3.106627970682E-01
     5     1.725994603102E-01
     6    -1.510051619180E-01
     7    -3.874503316315E-04
     8     2.354076951305E-01
     9     1.226987545476E-01
    10     1.231338502988E-03
    11     1.488355669302E-03
    12     1.620030766183E-02
    13    -1.227278816237E-02
    14    -8.450062074136E-03
    15     8.884379486028E-02
    16     2.987816382008E-02
    17     8.471774656111E-02
    18     4.238997624252E-02
    19     1.449113598276E-02
    20    -3.203440985377E-02
    21     1.392588077254E-02
    22    -2.099752610053E-02
    23     9.936299913904E-02
    24    -7.253241344228E-02
    25     2.004017157990E-02
    26    -1.105879556035E-02
    27     7.472467705832E-02
    28     5.182762343944E-03
    29    -3.291017039363E-03
    30    -2.955068655960E-03
    31     7.014128929473E-04
    32    -2.041380993612E-03
    33     1.085884475582E-03
    34     4.058527938414E-02
    35     3.666981211139E-02
    36     1.929318727101E-02
    37    -5.246842947278E-02
    38     1.239419939103E-01
    39    -2.782965737852E-01
    40     1.325352381692E-01
    41    -2.706265960723E-01
    42     2.226465674723E-01
    43    -2.021102562539E-01
    44     9.451312764243E-02
    45    -1.964846309647E-01
    46    -6.438404667168E-03
    47    -1.734253506722E-02
    48     1.073191891989E-02
    49    -1.125780926273E-02
    50     5.973445338872E-03
    51    -8.950019018311E-02
    52    -7.071582491187E-02
    53    -1.211500537258E-01
    54    -6.175401474029E-02
 Sym=  A
 Ene=      -0.5676094264
 Spin= Alpha
 Occup=   2.00000000
     1    -3.872896673823E-02
     2     9.972738022402E-02
     3     1.303107517189E-01
     4    -2.016667400332E-01
     5    -2.287997228220E-01
     6     1.357267264963E-01
     7     1.137699543163E-01
     8    -1.529549522994E-01
     9    -1.684697276453E-01
    10    -3.359651202947E-03
    11     4.231553163576E-03
    12    -1.458149641198E-02
    13     6.042405292470E-03
    14     9.194302136856E-03
    15    -7.347067193926E-02
    16    -2.884721857147E-03
    17    -7.282004696203E-02
    18    -5.151820161427E-02
    19    -3.755841082740E-02
    20     9.701716007762E-02
    21     1.041563847554E-01
    22     2.091100572174E-01
    23    -2.219335624124E-01
    24     1.305190799134E-01
    25     7.170425120053E-02
    26     1.715727901270E-01
    27    -1.634508362726E-01
    28    -3.161547373202E-03
    29     1.016887784180E-02
    30     1.069867461076E-02
    31     4.863944409341E-03
    32    -9.604365596715E-03
    33    -7.135677185055E-02
    34    -1.161006111405E-03
    35    -7.019740029663E-02
    36    -5.028300404567E-02
    37    -3.856848091933E-02
    38     9.945457050068E-02
    39    -2.403924823580E-01
    40    -1.005855983651E-02
    41    -2.268524642789E-01
    42     1.346714068169E-01
    43    -1.900433653053E-01
    44    -2.037241121601E-02
    45    -1.670015375808E-01
    46    -3.245733977293E-03
    47    -1.466374319281E-02
    48     3.679310672315E-03
    49    -1.108084334424E-02
    50     6.932653276430E-04
    51    -7.383119422241E-02
    52    -2.399746959234E-03
    53    -7.251234266100E-02
    54    -5.152361589865E-02
 Sym=  A
 Ene=      -0.5144308656
 Spin= Alpha
 Occup=   2.00000000
     1    -4.541582057763E-03
     2     9.323843526302E-03
     3    -2.124742618387E-01
     4    -2.679198857357E-01
     5     1.132568494508E-01
     6     1.691162092506E-02
     7    -1.810777159935E-01
     8    -2.138227494902E-01
     9     9.274580813496E-02
    10     9.349240332042E-03
    11    -9.277871832071E-03
    12    -3.607043947548E-03
    13     1.396561133748E-02
    14    -3.091342895933E-03
    15    -3.763406025460E-02
    16     7.348700090391E-03
    17    -8.768527746955E-03
    18     4.547265354558E-03
    19    -4.369118218181E-03
    20     8.887511247047E-03
    21     3.396688491148E-01
    22    -5.447722509887E-02
    23     1.171711555175E-01
    24     1.624975665836E-02
    25     2.768644888192E-01
    26    -5.338484443007E-02
    27     9.579134120597E-02
    28     9.477926136306E-03
    29     7.650054533712E-03
    30    -6.448641203643E-03
    31    -9.915837620211E-03
    32    -1.046756952821E-02
    33    -3.705796964973E-02
    34     7.408350681448E-03
    35    -8.401236469954E-03
    36     4.715260298046E-03
    37    -4.463747415565E-03
    38     9.171245687026E-03
    39    -1.248867341013E-01
    40     3.179564637835E-01
    41     1.137545980797E-01
    42     1.647541791808E-02
    43    -9.411459870643E-02
    44     2.637492917601E-01
    45     9.313031731018E-02
    46     9.341256622467E-03
    47     1.547435872523E-03
    48     9.821646837956E-03
    49    -4.304338226489E-03
    50     1.360747746966E-02
    51    -3.745356283641E-02
    52     7.547233458405E-03
    53    -8.599544188592E-03
    54     4.569649931188E-03
 Sym=  A
 Ene=      -0.4938432110
 Spin= Alpha
 Occup=   2.00000000
     1     3.959106316582E-03
     2    -1.493021083449E-02
     3    -2.965206400153E-01
     4    -5.944018503289E-02
     5     1.626286971013E-01
     6     4.619636188848E-03
     7    -2.403407138830E-01
     8    -4.838778012634E-02
     9     1.277776341959E-01
    10     4.708412953308E-03
    11    -1.032059627961E-02
    12     2.374547250934E-03
    13     3.227781502583E-03
    14    -1.099597982540E-02
    15     2.790397706469E-02
    16    -3.011932924949E-02
    17     4.909715650294E-03
    18    -4.507055945546E-04
    19    -1.163960411015E-03
    20     7.276255638784E-03
    21    -3.756634414961E-01
    22     2.624343839752E-01
    23    -2.236775965205E-01
    24    -1.461532364661E-02
    25    -2.959317074550E-01
    26     2.125160988442E-01
    27    -1.776314329657E-01
    28    -1.012709664442E-02
    29    -6.570455922953E-03
    30     1.360590452134E-02
    31     1.678554058410E-02
    32     8.687882454349E-04
    33    -1.672603793041E-02
    34     3.740139356898E-02
    35     1.890149965891E-04
    36     1.790755906431E-03
    37    -2.786855915400E-03
    38     7.627984974108E-03
    39    -6.023043187913E-02
    40     1.758735162172E-01
    41     6.269584728521E-02
    42     9.852018809004E-03
    43    -4.449174520369E-02
    44     1.351543096373E-01
    45     5.121171351174E-02
    46     5.567492737699E-03
    47     1.228092024723E-03
    48     4.995341100122E-03
    49    -4.430994177744E-04
    50     6.867133507070E-03
    51    -1.157175300094E-02
    52    -7.005446353751E-03
    53    -5.071468516128E-03
    54    -1.190829982206E-03
 Sym=  A
 Ene=      -0.4937313606
 Spin= Alpha
 Occup=   2.00000000
     1    -9.106819092785E-04
     2     1.239190837492E-04
     3    -3.096413422738E-01
     4    -1.934631489763E-01
     5     1.647971024704E-01
     6     1.407459363407E-02
     7    -2.460321892702E-01
     8    -1.483022136285E-01
     9     1.317065507315E-01
    10     9.050853833947E-03
    11    -1.156047156806E-02
    12    -2.634776573388E-04
    13     8.852096832164E-03
    14    -9.831628893845E-03
    15     3.035908541046E-03
    16    -2.565888402967E-02
    17    -2.996044715633E-03
    18    -1.684191250705E-03
    19     3.829600543849E-03
    20    -1.287874773973E-02
    21     9.778447003737E-03
    22    -1.099944911129E-01
    23     5.699885051701E-02
    24    -2.652489860547E-03
    25     1.291923842283E-02
    26    -8.906121975548E-02
    27     4.366357899821E-02
    28    -5.334296381674E-04
    29    -3.530646882632E-04
    30    -3.756999154093E-03
    31    -3.089243607645E-03
    32     3.788853911674E-03
    33     2.265828516533E-02
    34    -1.355909284848E-02
    35     5.634969755141E-03
    36     2.941524022052E-04
    37    -3.003824477752E-03
    38     1.297106822347E-02
    39    -7.796207638755E-02
    40    -4.297973000371E-01
    41    -2.227450946524E-01
    42    -1.099000054606E-02
    43    -6.554014986613E-02
    44    -3.440973263657E-01
    45    -1.761009813136E-01
    46    -8.541351662082E-03
    47    -9.011053105875E-03
    48    -1.174344126297E-02
    49    -8.916255888257E-03
    50    -1.342120839417E-02
    51    -2.580530653812E-02
    52     3.895863464186E-02
    53    -2.757654085542E-03
    54     1.215566135334E-03
 Sym=  A
 Ene=       0.1970862791
 Spin= Alpha
 Occup=   0.00000000
     1    -5.510450921279E-02
     2     8.276148138905E-02
     3    -3.116305233512E-02
     4     4.368566639411E-02
     5     9.609325466252E-02
     6     6.672849136912E-01
     7    -1.045266079040E-02
     8     1.130101495316E-01
     9     2.346103246942E-01
    10     5.231343651611E-03
    11     2.151040818406E-03
    12     4.876091537762E-03
    13    -2.445052602998E-03
    14    -4.992102480648E-03
    15    -2.791251795226E-02
    16    -3.156001598398E-01
    17    -3.147827674064E-02
    18    -7.238399167547E-01
    19    -5.537462124911E-02
    20     8.303545782749E-02
    21    -2.369723365689E-02
    22    -4.880770062611E-02
    23     9.720571178369E-02
    24     6.710320480181E-01
    25    -9.524926053107E-02
    26    -6.599031222587E-02
    27     2.366523900437E-01
    28     5.204589043673E-03
    29    -5.410632432177E-03
    30    -6.040583641332E-04
    31    -3.037915020925E-03
    32     4.675360855734E-03
    33    -2.800527494136E-02
    34    -3.176692240515E-01
    35    -3.187677889693E-02
    36    -7.290350386812E-01
    37    -5.545876012627E-02
    38     8.325685579227E-02
    39     5.392093266116E-02
    40     4.442860880451E-03
    41     9.748465746322E-02
    42     6.710738674878E-01
    43     1.041277509673E-01
    44    -4.860266535036E-02
    45     2.371956288435E-01
    46     5.263577317979E-03
    47     3.216190511380E-03
    48    -4.348037075746E-03
    49     5.545075081231E-03
    50     3.553618449288E-04
    51    -2.831004036303E-02
    52    -3.173685855529E-01
    53    -3.191814040954E-02
    54    -7.298248069293E-01
 Sym=  A
 Ene=       0.2524094729
 Spin= Alpha
 Occup=   0.00000000
     1     1.696396215911E-03
     2    -1.009970771092E-02
     3    -6.079073988816E-03
     4     6.513110706806E-02
     5    -1.764540394942E-02
     6     2.536713123377E-02
     7    -2.955136331313E-02
     8     8.565529701799E-02
     9    -4.454554172004E-02
    10    -2.565552786953E-03
    11    -3.065928013957E-05
    12     7.932763213241E-04
    13    -2.455805397617E-03
    14     3.213586372598E-03
    15    -1.228086795948E-02
    16    -1.893866332842E-01
    17     3.197836460829E-03
    18     9.898152808426E-02
    19    -5.465959971392E-02
    20     6.959194049122E-02
    21    -5.811236881738E-02
    22     5.046466604796E-02
    23     1.574093247627E-01
    24     7.540518157509E-01
    25    -1.364882229820E-01
    26     9.255550752183E-02
    27     3.919080955876E-01
    28     8.528246033207E-03
    29    -8.847474186144E-03
    30     1.636021095156E-04
    31    -1.255217746601E-03
    32    -5.512401003303E-04
    33    -2.471647212278E-02
    34    -8.594050548090E-02
    35    -5.355112719136E-02
    36    -1.148190288843E+00
    37     5.295660112555E-02
    38    -5.953027897434E-02
    39    -4.476779339670E-02
    40     1.022634157656E-01
    41    -1.395516142272E-01
    42    -7.785419958842E-01
    43    -7.652394649558E-02
    44     1.804607235946E-01
    45    -3.469898564620E-01
    46    -6.014947116132E-03
    47    -4.935159509695E-03
    48     8.036874739448E-03
    49     1.419094258787E-03
    50     2.332108909994E-03
    51     3.731231527997E-02
    52     2.761936558067E-01
    53     5.031935180766E-02
    54     1.047168913762E+00
 Sym=  A
 Ene=       0.2526930303
 Spin= Alpha
 Occup=   0.00000000
     1    -6.239808313217E-02
     2     7.489450770405E-02
     3     7.979415137827E-02
     4     6.583124631906E-02
     5     1.712554937108E-01
     6     8.894135292293E-01
     7     1.538152769863E-01
     8     1.309054231017E-01
     9     4.273599477097E-01
    10     8.480320567362E-03
    11     5.277079416538E-03
    12     9.129055232098E-03
    13    -7.885666111872E-05
    14     8.899486233026E-04
    15    -3.600718583334E-02
    16    -2.100079144696E-01
    17    -5.967384101191E-02
    18    -1.272057658219E+00
    19     2.931972819877E-02
    20    -2.800471399435E-02
    21     9.504591266702E-02
    22     1.432292114120E-02
    23    -6.986936115836E-02
    24    -4.617111575610E-01
    25     1.470850031800E-01
    26     2.523951928446E-02
    27    -1.735354416971E-01
    28    -1.939412208850E-03
    29     5.844867313792E-03
    30     3.606269117079E-04
    31    -3.919590506082E-03
    32    -2.701247129284E-04
    33     2.828915254761E-02
    34     2.674587240655E-01
    35     2.685236803426E-02
    36     5.449928842885E-01
    37     3.232225860745E-02
    38    -4.570947483427E-02
    39     4.333903422544E-02
    40     2.770041939137E-02
    41    -1.009717215926E-01
    42    -4.177485524945E-01
    43     5.956745653024E-02
    44     8.448676494983E-02
    45    -2.516266374229E-01
    46    -6.422954024826E-03
    47    -2.046750239110E-03
    48     4.218361398511E-03
    49    -9.408347102546E-04
    50    -2.953760181600E-03
    51     7.106229903789E-03
    52    -6.198589204622E-02
    53     3.273325239613E-02
    54     7.178556355661E-01
 Sym=  A
 Ene=       0.3657521980
 Spin= Alpha
 Occup=   0.00000000
     1     2.764129317463E-02
     2    -7.469335929663E-02
     3     1.632477401802E-01
     4    -3.878466696126E-02
     5     1.312844114864E-01
     6    -1.885032703346E-01
     7     3.944396353058E-01
     8    -1.540822710292E-01
     9     2.831775339503E-01
    10     5.937197735899E-03
    11     7.262684259110E-03
    12     4.576908642378E-03
    13     5.909083694081E-04
    14     1.269321183058E-02
    15     4.650629620130E-02
    16     8.780704046124E-01
    17    -1.241193650637E-02
    18    -7.111685547219E-01
    19     2.806326775033E-02
    20    -7.471957684854E-02
    21    -4.374295579065E-02
    22     1.635820450869E-01
    23     1.320906921879E-01
    24    -1.990253419020E-01
    25    -5.750990442921E-02
    26     4.247624321527E-01
    27     2.848656071801E-01
    28     6.023100909126E-03
    29    -7.373009450006E-03
    30     4.019858296000E-03
    31     1.045250816194E-02
    32    -6.856960262442E-03
    33     4.839690472844E-02
    34     9.011457194330E-01
    35    -1.293488119253E-02
    36    -7.125684061848E-01
    37     2.829387333532E-02
    38    -7.571257571925E-02
    39    -1.201516956501E-01
    40    -1.220524200221E-01
    41     1.336296908931E-01
    42    -1.980534611043E-01
    43    -3.415265885985E-01
    44    -2.661753668316E-01
    45     2.882347366042E-01
    46     6.056711409192E-03
    47     2.154483593945E-04
    48    -8.515784116396E-03
    49    -1.127754837059E-02
    50    -5.857121089507E-03
    51     4.901445591781E-02
    52     9.062259309310E-01
    53    -1.325499142326E-02
    54    -7.207562838919E-01
 Sym=  A
 Ene=       0.3928449953
 Spin= Alpha
 Occup=   0.00000000
     1     6.859943182844E-03
     2    -4.094639176108E-02
     3     6.270907467776E-02
     4     1.323525277142E-01
     5     4.242494688551E-02
     6     1.065520892998E-01
     7     1.265347426293E-01
     8     1.672231502773E-01
     9     7.895643569346E-02
    10    -1.559842768317E-03
    11     3.331730542497E-03
    12     8.913986348276E-03
    13    -7.674303951571E-03
    14     1.379847265561E-02
    15    -1.775277728829E-02
    16    -1.626679828112E-01
    17    -8.165050411542E-03
    18    -2.506405943348E-01
    19    -2.963230441401E-02
    20     5.511094841656E-02
    21    -5.236007640777E-02
    22    -1.720211648611E-01
    23    -1.175194814119E-01
    24     3.910953793358E-01
    25    -9.892778353871E-02
    26    -4.872401397566E-01
    27    -2.852045044005E-01
    28    -7.030348825321E-03
    29    -2.798415916545E-04
    30    -1.928856133890E-03
    31    -8.915702597628E-03
    32    -2.586452673075E-06
    33    -8.131758680195E-02
    34    -1.330035032513E+00
    35     3.131927951750E-02
    36     6.328556301434E-01
    37     2.236282731051E-02
    38    -1.336802492492E-02
    39    -2.573976769478E-01
    40     8.078774685922E-02
    41     7.348727275279E-02
    42    -4.920042552513E-01
    43    -5.487748810178E-01
    44     3.777568460556E-02
    45     2.028472941275E-01
    46     8.521422066117E-03
    47    -7.935222710221E-03
    48     6.647360805986E-03
    49     3.831750576008E-03
    50     5.927751934067E-03
    51     9.877993761233E-02
    52     1.478738861140E+00
    53    -2.257687257915E-02
    54    -3.742755122249E-01
 Sym=  A
 Ene=       0.3934947608
 Spin= Alpha
 Occup=   0.00000000
     1     3.044031106764E-02
     2    -4.057751167910E-02
     3     1.064921024947E-01
     4    -2.282408862221E-01
     5     1.115580441300E-01
     6    -5.139032455513E-01
     7     3.600812002940E-01
     8    -4.775522500502E-01
     9     2.850907700099E-01
    10     9.116503218090E-03
    11    -1.867504586087E-05
    12    -6.580821197268E-03
    13    -7.148830431638E-04
    14     9.553878533080E-04
    15     1.041090318899E-01
    16     1.635206658500E+00
    17    -3.064907267934E-02
    18    -5.896997929402E-01
    19    -8.441367793520E-03
    20    -1.723084236314E-02
    21    -1.998241808588E-01
    22    -1.102093346244E-01
    23    -1.672641380102E-02
    24     3.425300286083E-01
    25    -2.995214073966E-01
    26    -2.433355741454E-01
    27    -6.909593079930E-02
    28    -5.771899368160E-03
    29    -1.114196772006E-02
    30    -2.830414788039E-03
    31     1.332027938320E-02
    32    -3.721880791045E-04
    33    -6.636943002691E-02
    34    -9.394129965030E-01
    35     8.852749466859E-03
    36     6.494653102662E-02
    37    -2.081501774109E-02
    38     5.474182517611E-02
    39     5.189527844359E-02
    40     9.166176618448E-02
    41    -9.068397960209E-02
    42     1.625471997213E-01
    43     2.216811302978E-01
    44     2.000162568371E-01
    45    -2.067358132580E-01
    46    -3.090540380067E-03
    47    -2.398052652408E-03
    48     4.542898061995E-03
    49     7.071005065593E-03
    50     1.224188534482E-02
    51    -3.641503415112E-02
    52    -6.638836126267E-01
    53     2.262766250595E-02
    54     5.004416206678E-01
 Sym=  A
 Ene=       1.0043440350
 Spin= Alpha
 Occup=   0.00000000
     1     1.239233324213E-02
     2    -4.124193745310E-02
     3    -1.028355139897E-01
     4    -3.280777536598E-02
     5     4.993926741596E-02
     6    -4.354585697529E-02
     7    -1.389584460908E-01
     8     1.538351991473E-01
     9    -3.957445012895E-01
    10     7.563298571605E-02
    11     5.362191175516E-02
    12     2.169883949705E-02
    13     2.930193171340E-02
    14     3.888320917933E-02
    15    -3.171989578216E-01
    16     1.268448155989E-01
    17     5.628988931535E-01
    18    -2.111127873527E-01
    19     1.233268300689E-02
    20    -4.140009199065E-02
    21     8.647838044325E-02
    22    -7.199732799354E-02
    23     4.723944882562E-02
    24    -4.280301081891E-02
    25    -6.803017869537E-02
    26    -2.120239847926E-01
    27    -4.064766573530E-01
    28     7.992313079124E-02
    29    -4.823919127043E-02
    30     3.618375475396E-02
    31     2.102343051323E-02
    32    -4.731504555978E-02
    33    -3.425301792024E-01
    34     1.488249875102E-01
    35     5.893305855125E-01
    36    -2.302850322073E-01
    37     1.235340195162E-02
    38    -4.138633665354E-02
    39     2.355275697150E-02
    40     1.093682224891E-01
    41     4.926686699721E-02
    42    -4.336047460819E-02
    43     2.085401246149E-01
    44     4.113590225828E-02
    45    -3.994515206468E-01
    46     7.814239979948E-02
    47    -7.279171914799E-03
    48    -5.849229119381E-02
    49    -5.046483565326E-02
    50     5.059624742514E-03
    51    -3.334288924584E-01
    52     1.431298010771E-01
    53     5.751941135888E-01
    54    -2.245677022416E-01
 Sym=  A
 Ene=       1.0406425123
 Spin= Alpha
 Occup=   0.00000000
     1     3.743659680717E-03
     2    -1.818304965989E-02
     3     1.131021065722E-01
     4     4.927771675513E-03
     5    -4.630342815003E-02
     6     3.034232484699E-02
     7    -4.095226042476E-02
     8    -1.375374461318E-01
     9     9.748593937701E-02
    10    -3.062170624537E-02
    11     2.892431218367E-03
    12    -2.161395577618E-02
    13    -8.666962684020E-05
    14    -4.546200838992E-02
    15     2.971577966906E-01
    16    -2.461132012565E-01
    17    -9.241601654308E-02
    18     1.175136802035E-01
    19    -1.895357983393E-03
    20     9.987237929306E-03
    21     1.286760601039E-01
    22    -2.738531170472E-02
    23    -4.011647743690E-02
    24    -3.885376143143E-02
    25    -1.083781182462E-01
    26    -3.800817235002E-01
    27    -3.242275207887E-01
    28     1.112909541957E-01
    29    -5.766276580106E-02
    30     1.236111813437E-02
    31     6.497058971896E-02
    32    -6.575933641954E-02
    33    -6.605798256061E-01
    34     5.183989524278E-01
    35     6.141821908823E-01
    36    -3.695024813355E-01
    37    -2.630714048817E-03
    38     1.075926462583E-02
    39     8.933123455017E-02
    40    -3.458521184234E-02
    41     8.142907729258E-02
    42     1.331086242096E-02
    43    -2.902474775723E-01
    44    -1.969484333220E-01
    45     2.477044085043E-01
    46    -8.488536307263E-02
    47     2.762179063608E-03
    48     5.040878203928E-02
    49     5.209528718922E-02
    50     1.086112206905E-03
    51     3.780323330492E-01
    52    -2.823347576888E-01
    53    -5.479605697906E-01
    54     2.614408083060E-01
 Sym=  A
 Ene=       1.0415550678
 Spin= Alpha
 Occup=   0.00000000
     1    -5.463226302872E-04
     2     4.865136397292E-04
     3     4.626014548851E-02
     4     1.121630290245E-01
     5     6.677297595537E-02
     6     3.350595375376E-02
     7     3.435506903676E-01
     8    -2.563675956801E-01
     9     3.409188682656E-01
    10    -1.144683855468E-01
    11    -4.941994139660E-02
    12    -3.849930216557E-02
    13    -2.873797437263E-02
    14    -7.875150774397E-02
    15     6.063879468022E-01
    16    -4.644230167374E-01
    17    -6.772215535516E-01
    18     3.606160731140E-01
    19     3.312460799905E-03
    20    -1.612058655224E-02
    21     4.575553869109E-03
    22     9.408319933606E-02
    23    -7.598632565057E-02
    24     1.269738093003E-02
    25     9.780111806106E-02
    26    -1.842758435381E-01
    27    -7.814222053601E-02
    28     2.963529842438E-02
    29    -1.372024684709E-02
    30     2.253193744914E-02
    31    -7.299365650010E-03
    32    -1.199766074803E-02
    33    -4.339223376514E-02
    34     1.719102216931E-02
    35     2.512016937106E-01
    36    -7.771749400041E-02
    37    -3.628808005343E-03
    38     1.764368612459E-02
    39     6.775745944898E-03
    40     1.279823381281E-01
    41     1.877492492811E-03
    42    -3.997504405252E-02
    43     2.754218962033E-01
    44    -5.344781240256E-03
    45    -2.349606800569E-01
    46     8.102186346686E-02
    47     2.238582128717E-02
    48    -3.582310895931E-02
    49    -7.415895750685E-02
    50    -2.694336135458E-02
    51    -5.518244148845E-01
    52     4.429958276550E-01
    53     3.968355764553E-01
    54    -2.773427561712E-01
 Sym=  A
 Ene=       1.0898661930
 Spin= Alpha
 Occup=   0.00000000
     1     1.629637329077E-02
     2    -5.424833485129E-02
     3    -4.172905040870E-01
     4     1.002424979087E-02
     5     3.138391846421E-01
     6    -1.444590063800E-01
     7     5.605827411635E-01
     8    -1.534895256651E-01
     9    -2.684119420833E-01
    10    -1.718475652433E-02
    11     1.396096243842E-02
    12    -1.693629503176E-02
    13    -3.037718494169E-02
    14    -1.810039956039E-02
    15     2.109848286552E-01
    16     1.589325401359E-01
    17    -3.495803613472E-02
    18     3.329151623224E-02
    19     1.631051448286E-02
    20    -5.469840460422E-02
    21     2.019667735754E-01
    22    -3.674896727322E-01
    23     3.144586658982E-01
    24    -1.443798459451E-01
    25    -1.487710760105E-01
    26     5.580509709066E-01
    27    -2.737724475099E-01
    28    -1.578851863145E-02
    29     6.948358235629E-03
    30     2.065768553236E-02
    31     5.356331305828E-04
    32     3.459908239847E-02
    33     2.030835830054E-01
    34     1.639939929542E-01
    35    -2.804787289505E-02
    36     3.007452776285E-02
    37     1.620695764997E-02
    38    -5.424657780907E-02
    39     2.158395918987E-01
    40     3.588410572818E-01
    41     3.136444666869E-01
    42    -1.430828961833E-01
    43    -4.073123734396E-01
    44    -4.100317682604E-01
    45    -2.710520135340E-01
    46    -1.636455347616E-02
    47    -2.128125842559E-02
    48    -4.050942886986E-03
    49     3.016189594239E-02
    50    -1.755818759840E-02
    51     2.046981945347E-01
    52     1.608345744951E-01
    53    -3.127632814120E-02
    54     3.114052485062E-02
 Sym=  A
 Ene=       1.1510635721
 Spin= Alpha
 Occup=   0.00000000
     1     3.373826761873E-02
     2    -1.480789568024E-01
     3     1.203087799279E-01
     4     4.282997312381E-02
     5    -1.134783072779E-01
     6     4.854273688344E-03
     7    -9.407959339522E-02
     8    -3.505980268087E-01
     9    -6.224413763736E-02
    10     6.194484440124E-03
    11     8.883696308291E-02
    12    -2.754570876959E-02
    13    -7.685636091931E-03
    14    -8.926876748885E-02
    15     5.717985955767E-01
    16    -3.083414585902E-01
    17     4.102607104336E-01
    18    -1.180234416487E-01
    19     3.273162919236E-02
    20    -1.463164441944E-01
    21    -8.676901751422E-02
    22     7.353731683332E-02
    23    -1.028275745848E-01
    24     7.874145828694E-03
    25     3.323604228229E-01
    26     9.621287201235E-02
    27    -6.656901705314E-02
    28     6.065396540782E-03
    29    -2.038297414004E-02
    30     8.667860010207E-02
    31    -6.905720217573E-02
    32     4.981049785747E-02
    33     5.477275227946E-01
    34    -2.914021090898E-01
    35     3.955147442043E-01
    36    -1.142932406842E-01
    37     3.499480874602E-02
    38    -1.540013070157E-01
    39    -2.726073633326E-02
    40    -1.194419306421E-01
    41    -1.210649421471E-01
    42     1.015757864599E-02
    43    -2.537408903222E-01
    44     2.512847069813E-01
    45    -6.392441198902E-02
    46     9.196046303441E-03
    47    -6.974626835248E-02
    48    -6.656888370989E-02
    49     8.247271761357E-02
    50     3.861700528747E-02
    51     5.823963159057E-01
    52    -3.187998265755E-01
    53     4.350192400732E-01
    54    -1.373630896260E-01
 Sym=  A
 Ene=       1.1732210681
 Spin= Alpha
 Occup=   0.00000000
     1    -2.458293145526E-02
     2     7.533102876403E-02
     3    -1.393518488739E-02
     4     1.492010211598E-01
     5     2.130729399490E-01
     6    -1.741173309771E-02
     7     2.562004809645E-03
     8    -4.979557681417E-02
     9    -1.578813639955E-02
    10    -5.188333136291E-02
    11    -8.852728091917E-02
    12     1.213371796546E-03
    13    -5.402163881741E-03
    14     5.412952733826E-02
    15    -3.208221605258E-01
    16     2.907195784715E-01
    17    -5.001316166278E-01
    18     3.230326394957E-01
    19    -2.373743926567E-03
    20    -2.397274088188E-02
    21     2.092172374410E-01
    22    -2.069720008556E-01
    23     2.324558134401E-01
    24     3.540061471564E-02
    25    -3.193656814940E-01
    26     1.339604856155E-01
    27    -2.388919624594E-01
    28     1.181429875312E-02
    29    -3.293087465030E-03
    30    -2.406874890788E-02
    31     3.561433824584E-02
    32    -2.295688254691E-02
    33    -2.306240286054E-01
    34     1.332966296647E-01
    35    -4.375756908974E-02
    36    -6.759235628416E-03
    37     2.447961302320E-02
    38    -4.080938971444E-02
    39    -2.137459372962E-01
    40    -2.115434929301E-01
    41    -4.414759945172E-01
    42    -1.488364595169E-02
    43     2.153330623904E-02
    44     2.991737267125E-01
    45     2.664184951949E-01
    46     3.882776946948E-02
    47    -6.276323177820E-02
    48    -8.027683154630E-02
    49     7.679525139614E-02
    50     4.825332986501E-02
    51     5.157452375994E-01
    52    -4.046134648782E-01
    53     5.128128892495E-01
    54    -3.113913762292E-01
 Sym=  A
 Ene=       1.1739411998
 Spin= Alpha
 Occup=   0.00000000
     1    -1.421114582104E-02
     2     1.400410950186E-03
     3    -3.331143265865E-01
     4     7.247788207587E-04
     5     3.927260311163E-01
     6     3.377447729124E-02
     7     3.191276197851E-01
     8     1.881871860343E-01
     9    -2.995129164821E-01
    10    -1.591537446651E-02
    11    -6.707174551587E-02
    12     1.632781565824E-02
    13    -1.403059811092E-03
    14     7.407461311447E-02
    15    -4.134465794968E-01
    16     3.011378549826E-01
    17    -3.109361108630E-01
    18     1.722728604419E-01
    19     2.798425530118E-02
    20    -6.336044716868E-02
    21     2.915638339721E-02
    22     2.250202329624E-01
    23    -3.890010930440E-01
    24    -1.813358024797E-04
    25     1.204284014311E-01
    26    -1.162986129139E-01
    27     1.773686199045E-01
    28     5.157198487022E-02
    29    -4.743056617919E-02
    30     9.913010384228E-02
    31    -7.543735832815E-02
    32     3.902961250122E-02
    33     4.904459949396E-01
    34    -4.064750891858E-01
    35     5.828928332476E-01
    36    -3.666167513049E-01
    37    -1.133478040082E-02
    38     5.022209857446E-02
    39     4.073847594210E-02
    40    -2.053659612018E-01
    41    -1.179822239188E-02
    42    -3.173790610209E-02
    43    -6.394480603024E-02
    44     2.213185691586E-01
    45     1.201109129172E-01
    46    -3.528565924285E-02
    47     1.049544190592E-02
    48     3.597773764268E-02
    49    -1.833426428704E-03
    50    -5.784643150642E-03
    51    -3.727469882420E-02
    52     8.686572280238E-02
    53    -2.443143384325E-01
    54     1.834053685668E-01
 Sym=  A
 Ene=       1.2000764139
 Spin= Alpha
 Occup=   0.00000000
     1    -5.145046332897E-02
     2     3.457664904980E-01
     3     1.365296098910E-01
     4    -3.389390975011E-01
     5    -2.511452522652E-01
     6    -8.883673033318E-02
     7    -1.999516730638E-01
     8     5.806190946203E-01
     9     4.453888266480E-01
    10    -3.527005359598E-02
    11    -8.157691508424E-02
    12     2.717506678706E-02
    13    -5.079417569430E-03
    14     5.131340535307E-02
    15    -3.316583247752E-01
    16    -4.454528715069E-02
    17    -4.226541670238E-01
    18     1.949258590406E-01
    19     1.885591968242E-03
    20     1.726625034384E-02
    21    -1.880041344159E-01
    22    -5.770570035932E-02
    23    -1.413651558143E-01
    24    -4.785016228593E-02
    25     2.263822942998E-01
    26     7.080156284254E-02
    27     1.195784690528E-01
    28     2.305925983964E-02
    29     4.442712488575E-04
    30     1.381014145303E-02
    31     3.671915214266E-03
    32    -5.899360088164E-03
    33     2.774739915304E-03
    34     8.825335803098E-02
    35     1.011777858167E-01
    36    -1.069701567469E-01
    37     4.968175665373E-02
    38    -3.658629032339E-01
    39     2.130844472867E-01
    40     8.976383590704E-02
    41     3.902809992936E-01
    42     1.424624687414E-01
    43    -4.237537047395E-01
    44    -5.210368284254E-02
    45    -5.605243901037E-01
    46     1.213212426275E-02
    47    -5.177589264515E-02
    48    -5.061221139609E-02
    49     4.895733076811E-02
    50     2.968872802727E-02
    51     3.289872131072E-01
    52    -4.217511057685E-02
    53     3.213996916620E-01
    54    -9.324289989123E-02
 Sym=  A
 Ene=       1.2007006153
 Spin= Alpha
 Occup=   0.00000000
     1     2.762848177660E-02
     2    -2.198168151451E-01
     3    -1.260708325697E-01
     4    -2.987545147366E-02
     5     3.004916198932E-01
     6     1.072568935747E-01
     7     1.727690492787E-01
     8    -6.568850964072E-02
     9    -3.866204192156E-01
    10    -6.130382308191E-03
    11     3.399761283202E-02
    12    -7.308095696160E-03
    13    -9.703053968134E-04
    14    -3.747953528330E-02
    15     1.919314709255E-01
    16    -7.666757329044E-02
    17     1.295053965521E-01
    18     6.457487073792E-03
    19    -5.944907992346E-02
    20     4.160379444533E-01
    21     1.457956147456E-01
    22     2.935152737514E-01
    23    -3.587665291060E-01
    24    -1.365787558685E-01
    25    -3.353651004998E-01
    26    -4.950448483035E-01
    27     5.741077275755E-01
    28    -2.858993232363E-02
    29     2.203386185922E-02
    30    -9.193365870838E-02
    31     5.827795343171E-02
    32    -2.999295814238E-02
    33    -3.979079503344E-01
    34     9.034505158906E-03
    35    -4.458972613142E-01
    36     1.776353002538E-01
    37     3.074277009095E-02
    38    -1.906238025624E-01
    39     2.922709263055E-01
    40    -1.013838976015E-01
    41     6.494050712810E-02
    42     2.788036188440E-02
    43    -4.468141949618E-01
    44     1.523499406149E-01
    45    -1.887744094415E-01
    46     3.385803646714E-02
    47    -4.375781931442E-02
    48    -3.672004739949E-02
    49     1.992772806518E-02
    50     1.708830736997E-02
    51     1.908898031774E-01
    52     7.459110018197E-02
    53     3.019349888372E-01
    54    -1.772219541780E-01
 Sym=  A
 Ene=       1.2517625670
 Spin= Alpha
 Occup=   0.00000000
     1     2.845075770390E-03
     2    -3.297555525160E-02
     3    -4.428134555576E-02
     4    -5.629550585619E-01
     5    -9.422364214001E-02
     6     8.455194179150E-02
     7     9.056255711314E-02
     8     5.609588898069E-01
     9     1.286150137925E-01
    10    -2.175665976117E-02
    11     1.521320839445E-02
    12    -7.905003880446E-03
    13    -2.015188640718E-02
    14    -1.560820721962E-02
    15     1.395855155916E-01
    16    -8.534297510082E-02
    17     3.022027539807E-02
    18    -1.113634661647E-01
    19     2.434264672594E-03
    20    -3.098408819600E-02
    21     5.093250779549E-01
    22     2.482071943150E-01
    23    -9.510994727687E-02
    24     8.443064630998E-02
    25    -5.323696211356E-01
    26    -2.095211892196E-01
    27     1.316817814832E-01
    28    -2.230235840549E-02
    29    -4.649972481270E-04
    30     1.577999803416E-02
    31    -2.029415019173E-03
    32     2.520755935105E-02
    33     1.347716037794E-01
    34    -8.333881347995E-02
    35     2.523950171584E-02
    36    -1.089956866096E-01
    37     2.268812591007E-03
    38    -2.960545695398E-02
    39    -4.696766661538E-01
    40     3.219344693336E-01
    41    -9.501864458898E-02
    42     8.437271104720E-02
    43     4.490071887128E-01
    44    -3.624055793943E-01
    45     1.316688825487E-01
    46    -2.232525069941E-02
    47    -1.331920273327E-02
    48    -8.226917714450E-03
    49     2.242975301675E-02
    50    -1.053352639938E-02
    51     1.339381952116E-01
    52    -8.531595620746E-02
    53     2.453211669690E-02
    54    -1.086981652635E-01
 Sym=  A
 Ene=       1.3656366049
 Spin= Alpha
 Occup=   0.00000000
     1     8.217855695912E-04
     2    -1.914582321572E-02
     3     5.393401143022E-01
     4     3.676313916250E-01
     5     1.009988832113E-01
     6    -1.729363295518E-01
     7    -7.049781469790E-01
     8    -3.981052841324E-01
     9    -1.284065629137E-01
    10     5.496321407078E-02
    11    -5.257032931037E-02
    12     9.150271583353E-03
    13    -2.917145400312E-02
    14     3.518482513265E-02
    15    -2.924161086176E-01
    16     4.539800949907E-01
    17    -1.087274694213E-01
    18     2.560879757997E-01
    19     1.723123375656E-02
    20    -1.750767205735E-01
    21     4.054271097316E-01
    22     1.642682461857E-01
    23    -1.002261179965E-01
    24     2.483668796473E-01
    25    -4.982974350604E-01
    26    -7.044049943049E-02
    27     1.591250374411E-01
    28    -4.651587203384E-02
    29    -3.281209666672E-03
    30     4.179804153093E-02
    31    -7.538315394461E-03
    32     3.002901678804E-02
    33     2.685863379370E-01
    34    -2.741406655445E-01
    35     6.041595817181E-02
    36    -2.013452741173E-01
    37    -1.757854402659E-02
    38     1.874310674194E-01
    39     3.023539833323E-01
    40     3.891367080123E-01
    41    -1.338419340278E-02
    42    -6.713140313360E-02
    43    -3.281738811262E-01
    44    -4.255839315524E-01
    45    -1.093945163078E-02
    46    -8.568567032630E-03
    47     8.910999232941E-04
    48    -1.715559906738E-02
    49    -1.416956959642E-02
    50     4.982182956209E-02
    51     2.277406159349E-02
    52    -1.667290840954E-01
    53     4.974562454883E-02
    54    -7.400385655791E-02
 Sym=  A
 Ene=       1.3661949698
 Spin= Alpha
 Occup=   0.00000000
     1     2.030349776309E-02
     2    -2.110901379240E-01
     3     2.446513064059E-01
     4    -2.893709717047E-01
     5    -5.415172783970E-02
     6     1.834991924518E-01
     7    -1.940922722533E-01
     8     3.094932432756E-01
     9     1.043930382245E-01
    10    -2.216197938679E-02
    11     1.411690077664E-02
    12    -1.624191441063E-02
    13    -4.205248935261E-02
    14    -5.736877423064E-03
    15     1.445534465717E-01
    16    -5.855554421354E-02
    17     7.088774580413E-03
    18    -7.893888406517E-02
    19    -1.050819775615E-02
    20     1.167704857835E-01
    21     4.503612316514E-01
    22    -4.268319666601E-01
    23    -6.848022450179E-02
    24     6.557340883821E-02
    25    -5.257718107824E-01
    26     5.250586081504E-01
    27     7.195992622453E-02
    28    -3.728303433485E-02
    29    -1.960928792599E-02
    30     3.318176565573E-02
    31    -4.630230116075E-02
    32    -2.595294412471E-02
    33     1.819600952686E-01
    34    -3.586748984995E-01
    35     9.120637380335E-02
    36    -1.943350523517E-01
    37    -9.306458664551E-03
    38     8.943534436963E-02
    39     2.265595325589E-01
    40    -5.293403063015E-01
    41     1.142284018051E-01
    42    -2.439714386397E-01
    43    -1.762089428970E-01
    44     6.944088300792E-01
    45    -1.639798946581E-01
    46     5.903035931219E-02
    47     3.926695985683E-02
    48     3.682660254589E-02
    49    -2.594528041867E-02
    50    -2.006047694215E-02
    51    -3.223049053511E-01
    52     4.230025257419E-01
    53    -9.509659095695E-02
    54     2.602672365645E-01
 Sym=  A
 Ene=       1.3893959920
 Spin= Alpha
 Occup=   0.00000000
     1     1.510989363416E-02
     2    -2.327604356042E-01
     3    -3.414182123935E-01
     4     9.830605752795E-02
     5    -4.564956856733E-01
     6     3.002870141774E-01
     7     5.738921318572E-01
     8    -1.242234626150E-01
     9     7.136611209754E-01
    10     8.013427691494E-03
    11    -3.342267147337E-03
    12     1.641921753153E-02
    13    -1.170251639097E-02
    14     4.147976515164E-02
    15    -1.021206824827E-01
    16     5.235326977217E-01
    17     5.910327997086E-02
    18    -7.187435289451E-01
    19     1.485080082659E-02
    20    -2.316151910133E-01
    21     7.299728942573E-02
    22    -3.452014191057E-01
    23    -4.601568700226E-01
    24     2.950725595390E-01
    25    -1.651385886126E-01
    26     5.585071571425E-01
    27     7.210128664877E-01
    28     8.777287773440E-03
    29    -1.154835838377E-02
    30    -1.337541846324E-02
    31     4.346824641555E-02
    32    -1.088457067345E-02
    33    -1.129979587529E-01
    34     5.446499185675E-01
    35     5.380717099736E-02
    36    -7.188500287215E-01
    37     1.528447372579E-02
    38    -2.364414570726E-01
    39     2.533119359443E-01
    40     2.423976481580E-01
    41    -4.619758077684E-01
    42     3.030551379545E-01
    43    -3.917411154521E-01
    44    -4.326394848588E-01
    45     7.240183674039E-01
    46     7.304581167735E-03
    47     1.652342343056E-02
    48    -3.916238464608E-03
    49    -3.044537369616E-02
    50    -3.247155800897E-02
    51    -1.061210874393E-01
    52     5.326992251199E-01
    53     5.472598188504E-02
    54    -7.219269955802E-01
 Sym=  A
 Ene=       1.4395885024
 Spin= Alpha
 Occup=   0.00000000
     1    -5.610376108132E-03
     2     1.229795477581E-01
     3     7.581403845398E-02
     4     2.638346611727E-01
     5     1.258483024886E-01
     6    -2.685013553464E-01
     7    -1.712741565066E-01
     8    -4.551698317368E-01
     9    -2.213616308883E-01
    10     3.428256428513E-02
    11     3.067215599017E-03
    12    -1.743324585392E-02
    13     1.416783592786E-02
    14    -4.976567973447E-02
    15    -1.422528596767E-02
    16     2.555264819609E-01
    17     3.304423784048E-02
    18     1.871641586549E-01
    19     1.243320036865E-02
    20    -2.767848219139E-01
    21     1.504977499326E-02
    22    -3.997429326424E-01
    23    -5.326985921870E-01
    24     3.715116694021E-01
    25    -8.587824318087E-02
    26     6.354125371143E-01
    27     8.853518283493E-01
    28    -2.534171679193E-03
    29     8.249209336684E-03
    30    -3.469985896338E-02
    31     6.168775089408E-02
    32    -9.659809011355E-03
    33    -2.055005685980E-01
    34     7.763259454234E-01
    35    -2.091626842084E-02
    36    -8.042783088018E-01
    37    -7.109845939711E-03
    38     1.570056592287E-01
    39    -5.294138096465E-01
    40    -1.713313424985E-02
    41     4.088557394185E-01
    42    -1.072312051580E-01
    43     8.192069584807E-01
    44     1.839050203328E-02
    45    -6.670011088979E-01
    46    -3.131507019744E-02
    47    -8.750086899062E-03
    48    -2.991454871336E-02
    49     2.117120703824E-03
    50     1.134283394063E-02
    51     2.163821155323E-01
    52    -1.030765177051E+00
    53    -1.364895676212E-02
    54     6.205612297017E-01
 Sym=  A
 Ene=       1.4399941097
 Spin= Alpha
 Occup=   0.00000000
     1     1.154169703116E-02
     2    -2.539996792675E-01
     3    -3.688966242637E-01
     4     3.692434959954E-01
     5    -5.468110241692E-01
     6     2.812032387717E-01
     7     5.937496484793E-01
     8    -5.481164664315E-01
     9     9.013310753670E-01
    10     1.734088541553E-02
    11    -3.668920971696E-02
    12     1.949789062296E-03
    13    -1.817075676715E-02
    14     3.803465078414E-02
    15    -2.433043132976E-01
    16     1.047950590093E+00
    17    -1.869130335973E-03
    18    -8.309060991454E-01
    19    -7.394795007979E-04
    20     1.776315803352E-02
    21     2.968044926089E-01
    22     3.066489689913E-01
    23     1.610437820455E-01
    24     9.457921333856E-02
    25    -5.039718034440E-01
    26    -4.574430629153E-01
    27    -2.525628879536E-01
    28    -3.820709907772E-02
    29    -1.993425507676E-02
    30     6.028890524428E-03
    31     2.298705467643E-02
    32    -8.928022392465E-03
    33     1.322423558509E-01
    34    -7.385435509644E-01
    35    -2.824959603091E-02
    36     2.471794969729E-01
    37    -1.043390886580E-02
    38     2.302345559605E-01
    39    -8.462676059728E-02
    40    -2.338275557980E-01
    41     3.768719886349E-01
    42    -3.673601088618E-01
    43     1.142913318018E-01
    44     4.380777248058E-01
    45    -6.335633393489E-01
    46     2.120534584978E-02
    47    -2.449826358803E-02
    48    -1.073335403043E-02
    49     4.276841283511E-02
    50     4.946613226316E-02
    51     1.093621457138E-01
    52    -2.984743392263E-01
    53     3.111143851758E-02
    54     5.670332532882E-01
 Sym=  A
 Ene=       1.7188314384
 Spin= Alpha
 Occup=   0.00000000
     1     4.722084052866E-02
     2    -1.235448548123E+00
     3     1.035646164662E-01
     4    -1.419505432062E-01
     5    -4.529437041330E-02
     6     2.007953846994E+00
     7    -2.326500265900E-01
     8     4.428754184140E-01
     9     1.937833190499E-01
    10    -3.408615518540E-02
    11    -1.660207178201E-01
    12     6.070694666168E-02
    13     2.833232128560E-02
    14     9.112724663858E-02
    15    -1.125014111068E-01
    16    -7.799790310794E-01
    17    -1.485397551300E-01
    18    -3.498470496062E-01
    19    -2.385383920466E-02
    20     6.270205809814E-01
    21    -2.412617725239E-01
    22    -1.388845798547E-01
    23    -7.363318310971E-03
    24    -1.152962065753E+00
    25     5.301251650348E-01
    26     3.367241397792E-01
    27    -3.618044716222E-02
    28     1.122712676682E-01
    29     4.947125705825E-02
    30     6.978700240567E-02
    31    -8.016743869876E-02
    32     9.601900657078E-02
    33    -8.293601416731E-02
    34     9.771469453329E-01
    35     6.645977999834E-02
    36     1.299431730156E-01
    37    -2.341037847848E-02
    38     6.111085956467E-01
    39    -6.601794852075E-02
    40     1.573048886693E-01
    41     5.328243195529E-02
    42    -8.586295184886E-01
    43     5.497252731630E-02
    44    -2.676546647887E-01
    45    -1.599921646416E-01
    46    -7.691060354656E-02
    47    -5.067758069975E-02
    48    -1.231155707897E-01
    49    -2.935235155200E-02
    50    -1.063104985729E-03
    51     1.975382393360E-01
    52    -1.967141975631E-01
    53     8.495303884462E-02
    54     2.194747077695E-01
 Sym=  A
 Ene=       1.7188656190
 Spin= Alpha
 Occup=   0.00000000
     1    -2.491031246644E-04
     2     8.746062685390E-03
     3     6.047272815764E-02
     4     2.388833582869E-01
     5    -3.537671071791E-02
     6    -1.694671141930E-01
     7    -1.027452155637E-01
     8    -4.656935988374E-01
     9     7.267559016749E-02
    10     1.091605114448E-01
    11    -5.638352134149E-02
    12    -5.549627419616E-02
    13    -3.387270248846E-02
    14    -8.245006604721E-02
    15    -1.624701904010E-01
    16     6.787334460872E-01
    17    -1.177127204889E-02
    18    -5.170723892696E-02
    19    -4.065036742963E-02
    20     1.065132750804E+00
    21     5.685212610111E-02
    22    -1.048157993051E-01
    23     5.742055891257E-02
    24    -1.653534032913E+00
    25     5.691708875478E-03
    26     2.942391218567E-01
    27    -2.055213173122E-01
    28    -2.499525581085E-02
    29    -6.600076802197E-02
    30     1.617211955631E-01
    31    -2.834202773097E-02
    32     2.702233556943E-02
    33     1.812862258218E-01
    34     3.328439848627E-01
    35     1.363581691216E-01
    36     3.280611827011E-01
    37     4.102190528058E-02
    38    -1.074790516746E+00
    39    -2.393959018049E-01
    40     6.913180297213E-02
    41    -2.224130670870E-02
    42     1.822260484668E+00
    43     6.088450659687E-01
    44    -1.774251479646E-01
    45     1.331010487051E-01
    46    -8.363430087295E-02
    47     1.275856298015E-01
    48     6.133586390000E-02
    49    -1.254215502782E-01
    50    -2.450223023770E-02
    51    -1.810027093756E-02
    52    -1.010967273053E+00
    53    -1.241704051362E-01
    54    -2.765738967559E-01
 Sym=  A
 Ene=       1.8711516953
 Spin= Alpha
 Occup=   0.00000000
     1     2.799809787690E-02
     2    -8.792153012687E-01
     3     1.131712024162E-01
     4    -4.821172094206E-02
     5     7.359180497252E-02
     6     1.483582334637E+00
     7    -3.401930575229E-01
     8     2.204256336949E-01
     9    -8.815742631027E-02
    10     1.063641887077E-01
    11    -2.527791438203E-01
    12     5.908386666603E-02
    13     2.227769827288E-02
    14    -3.322438974356E-02
    15    -2.692837693852E-02
    16    -7.392766548977E-01
    17    -8.481779727425E-02
    18    -4.900248699059E-02
    19     2.791178344034E-02
    20    -8.782520384289E-01
    21    -1.482716488894E-02
    22     1.215621910287E-01
    23     7.331962316010E-02
    24     1.481645941262E+00
    25    -2.134536364133E-02
    26    -4.040496852734E-01
    27    -8.725056505654E-02
    28     1.065399977234E-01
    29     7.732434877059E-02
    30    -2.478035899990E-01
    31    -4.126589093967E-02
    32    -3.870221327799E-03
    33    -2.828879794690E-02
    34    -7.354443504135E-01
    35    -8.589206209868E-02
    36    -4.813886459603E-02
    37     2.793073573779E-02
    38    -8.766095775603E-01
    39    -9.835157895141E-02
    40    -7.385936469539E-02
    41     7.303335668587E-02
    42     1.477515890676E+00
    43     3.600600442901E-01
    44     1.840922827552E-01
    45    -8.688971039525E-02
    46     1.058248308854E-01
    47     1.764382827327E-01
    48     1.895866121378E-01
    49     1.709555773212E-02
    50     3.509059119608E-02
    51    -2.706632851945E-02
    52    -7.347941128974E-01
    53    -8.531936183930E-02
    54    -4.837653497281E-02
 Sym=  A
 Ene=       2.0122263525
 Spin= Alpha
 Occup=   0.00000000
     1    -7.266439838250E-04
     2     7.804126181894E-02
     3     1.156667596953E-02
     4    -7.091039880097E-03
     5    -4.374378002095E-03
     6    -1.539521630961E-01
     7     6.406942265065E-05
     8    -3.543038156922E-02
     9    -2.017422832215E-02
    10    -3.615107039209E-02
    11    -1.882213418388E-02
    12     3.108463126839E-01
    13    -2.515559339410E-01
    14     3.058033917981E-02
    15     3.583750909383E-02
    16     4.640268350751E-02
    17     3.113018776052E-02
    18     2.372800170532E-02
    19    -1.161969310586E-03
    20     1.242952416895E-01
    21     8.640231991658E-04
    22     2.435044909113E-03
    23    -1.982121610824E-03
    24    -2.409558891521E-01
    25     6.179288221396E-02
    26     5.805844767410E-02
    27    -5.458387602296E-02
    28    -5.618114611402E-02
    29    -5.607715352267E-01
    30    -4.400433943265E-01
    31     1.669721308231E-01
    32     3.550738925944E-01
    33     6.961136079261E-02
    34     5.862336459672E-02
    35     6.437943152400E-02
    36     3.711573577838E-02
    37    -1.329543996342E-03
    38     8.888676448054E-02
    39    -2.226446237760E-03
    40    -1.737935217687E-03
    41    -1.189326925940E-03
    42    -1.686690210743E-01
    43    -4.594861277378E-02
    44     1.063503892839E-02
    45    -2.281793859743E-02
    46    -6.046223727956E-02
    47     2.993841082275E-01
    48    -1.714448944179E-01
    49     7.317319030677E-02
    50    -1.786134009240E-01
    51     3.307998473293E-02
    52     6.112821954400E-02
    53     3.080757559408E-02
    54     1.852358696221E-02
 Sym=  A
 Ene=       2.0136647758
 Spin= Alpha
 Occup=   0.00000000
     1    -1.198453036082E-03
     2     8.965896159252E-02
     3    -1.400024507798E-02
     4     8.204624890365E-03
     5     3.548993295354E-03
     6    -1.676854719315E-01
     7     3.311359386399E-02
     8    -7.483753052915E-02
     9    -4.874862709448E-02
    10    -6.605415227437E-02
    11    -7.561807408753E-02
    12     6.100940567886E-01
    13    -1.780365069217E-01
    14    -7.199603704583E-02
    15     5.043020972574E-02
    16     4.291817140307E-02
    17     4.937760445534E-02
    18     1.982348016451E-02
    19    -3.054607454603E-04
    20    -3.155760495536E-02
    21    -5.108332112231E-04
    22     1.030739010624E-02
    23    -1.704075585135E-03
    24     6.359798875367E-02
    25    -3.711747485119E-02
    26    -3.843491155957E-02
    27     4.462791029763E-02
    28    -1.554866854828E-02
    29     3.439105078929E-01
    30     3.683304793950E-01
    31     6.738957991702E-03
    32    -2.220430285502E-01
    33    -4.399003267066E-02
    34     1.513942948109E-02
    35    -4.192628125532E-02
    36    -1.849735028912E-02
    37     3.113786667327E-04
    38     5.057613811952E-02
    39    -1.160529130202E-02
    40    -4.831898992134E-03
    41    -4.647217813543E-03
    42    -1.060987013515E-01
    43    -2.963400057653E-02
    44     2.313793290943E-02
    45    -3.283657573846E-02
    46     1.492267868933E-02
    47     3.988356177154E-01
    48    -1.047056172974E-01
    49     1.889922020776E-01
    50    -2.485018085900E-01
    51     4.654726314234E-02
    52     2.295336662614E-03
    53     4.033088246775E-02
    54     2.876264941650E-02
 Sym=  A
 Ene=       2.0141098234
 Spin= Alpha
 Occup=   0.00000000
     1    -4.268481837737E-04
     2    -4.807581812415E-02
     3    -1.631989702784E-04
     4     1.875250680665E-03
     5     1.713338951652E-03
     6     9.989150869124E-02
     7    -5.871592998233E-03
     8     5.303450506011E-02
     9     4.732867260888E-02
    10    -2.063068865810E-02
    11     1.551011943207E-01
    12    -5.335706142298E-01
    13     2.978396591117E-01
    14     9.923707977473E-02
    15    -5.527548989465E-02
    16     1.026250055736E-02
    17    -5.004770841654E-02
    18    -2.859741540525E-02
    19     8.902762539289E-04
    20    -1.949505912229E-02
    21     1.167774863472E-03
    22     1.767032697840E-02
    23    -5.231143907629E-03
    24     2.887528587229E-02
    25    -6.216876934916E-03
    26    -2.982026356884E-02
    27     8.024628243440E-03
    28     5.052264111700E-02
    29     1.066611735070E-01
    30     3.433992293679E-02
    31     6.525929928037E-02
    32     7.463253721474E-02
    33     8.589319715775E-05
    34    -2.267969270794E-02
    35    -3.204707394486E-03
    36     6.807194147318E-03
    37    -5.793005087582E-04
    38     7.703706460742E-02
    39     1.379290430088E-02
    40     8.101161104425E-03
    41     3.407772242486E-03
    42    -1.467417232948E-01
    43    -8.295991481206E-02
    44     1.384151888619E-02
    45    -5.854512741178E-02
    46    -3.291869225658E-02
    47     6.634638960556E-01
    48    -2.243932969170E-01
    49     2.158008030579E-01
    50    -1.417464281955E-01
    51     5.946571052642E-02
    52     1.789267352529E-02
    53     5.715647906603E-02
    54     2.428352911506E-02
 Sym=  A
 Ene=       2.0244135668
 Spin= Alpha
 Occup=   0.00000000
     1     1.407432897083E-03
     2    -7.688609299270E-02
     3    -1.003936188211E-02
     4    -6.932975119182E-03
     5     8.963561840126E-03
     6     1.473881612036E-01
     7    -9.228175175731E-03
     8     2.815783355291E-02
     9    -1.249122920322E-02
    10    -2.314791206641E-01
    11     7.008781121009E-02
    12     2.521722975800E-01
    13     4.588834156580E-01
    14    -7.283273128344E-02
    15     3.031210549807E-03
    16    -9.696886291066E-02
    17    -1.070386684061E-02
    18     5.059531026418E-03
    19     1.325532018072E-03
    20    -7.251982556962E-02
    21     1.225328116927E-02
    22    -6.017196078644E-03
    23     9.094786312053E-03
    24     1.399679761911E-01
    25    -2.009834467380E-02
    26    -1.943919618391E-02
    27    -1.421672786060E-02
    28    -2.343409087849E-01
    29    -2.661039307895E-01
    30    -7.342023611956E-02
    31    -2.881758107445E-01
    32    -3.475968887143E-01
    33     5.214156085954E-03
    34    -9.633550007591E-02
    35    -8.705348106580E-03
    36     5.950416225348E-03
    37     1.373456696247E-03
    38    -7.551498517087E-02
    39    -1.324975363713E-03
    40     1.379923144713E-02
    41     9.360288273732E-03
    42     1.459743945719E-01
    43     2.938355424131E-02
    44    -8.252389236315E-03
    45    -1.374606001919E-02
    46    -2.291598221233E-01
    47     1.841577982849E-01
    48    -1.868745535848E-01
    49    -1.611889089853E-01
    50     4.217715399683E-01
    51     4.692634636100E-03
    52    -1.004365241431E-01
    53    -9.793268225646E-03
    54     5.529212963756E-03
 Sym=  A
 Ene=       2.0348638938
 Spin= Alpha
 Occup=   0.00000000
     1    -1.097746409689E-03
     2     2.915014371258E-02
     3    -3.547707835322E-02
     4    -3.153179694572E-02
     5     6.085851113600E-03
     6    -1.604216532271E-02
     7     4.353765563977E-02
     8     5.264969667882E-02
     9    -2.335128581017E-02
    10     2.406929833078E-01
    11    -8.885281766733E-02
    12    -2.737861813652E-01
    13    -6.114761559657E-01
    14     8.620914020174E-02
    15     3.276526829176E-02
    16    -1.038251840759E-01
    17     1.995822959155E-02
    18     1.060986472149E-02
    19     2.334537234300E-03
    20    -8.966821808879E-02
    21    -4.337184068480E-02
    22     2.063459925807E-02
    23    -2.513475665460E-03
    24     1.406613170074E-01
    25     3.811465918271E-02
    26    -4.551874346357E-02
    27     1.389071406187E-02
    28    -1.264616545291E-02
    29    -2.408051545513E-02
    30    -1.238056165027E-01
    31    -3.957311644464E-01
    32    -3.957748988543E-01
    33    -2.440347264631E-02
    34    -2.204633262691E-02
    35    -3.122586302048E-02
    36    -4.895564196683E-04
    37    -1.336212637538E-03
    38     6.534057353987E-02
    39     5.890314215039E-03
    40     2.133976495471E-03
    41    -3.996021777559E-03
    42    -1.332795693718E-01
    43    -4.666581411474E-02
    44     7.210505340437E-03
    45     8.838760010895E-03
    46    -2.341831800800E-01
    47     9.172349281467E-02
    48    -2.670852002811E-01
    49    -8.028629085232E-02
    50     3.462706699842E-02
    51    -7.149455166860E-03
    52     1.292910731068E-01
    53     1.277823419590E-02
    54    -9.514576975777E-03
 Sym=  A
 Ene=       2.0352234888
 Spin= Alpha
 Occup=   0.00000000
     1     2.063007324355E-03
     2    -8.820749378001E-02
     3     2.521883986816E-02
     4     1.366732487276E-02
     5     8.205758276921E-04
     6     1.562884319250E-01
     7    -4.290817267493E-02
     8     1.909313320393E-02
     9     3.280077090530E-03
    10     1.298493372229E-01
    11    -1.620855437523E-01
    12    -8.176840841970E-02
    13     2.701711367514E-01
    14    -1.101494616136E-01
    15    -1.029815537518E-02
    16    -8.598726960190E-02
    17    -2.550774719516E-02
    18     4.961481911900E-03
    19    -1.358247488115E-04
    20     2.152216960686E-02
    21    -2.689706852053E-02
    22     5.395162042540E-03
    23    -6.025671874500E-03
    24    -6.923069934200E-02
    25     5.643093370026E-02
    26     1.455901424439E-02
    27     1.887567266515E-02
    28    -2.736184559311E-01
    29    -3.194677126829E-01
    30    -1.972776279856E-03
    31    -2.111786711480E-01
    32    -3.261979614633E-01
    33    -2.310539583241E-02
    34     1.359610477682E-01
    35    -4.006827951345E-03
    36    -1.179618932263E-02
    37    -2.000470316128E-03
    38     6.990684026707E-02
    39    -7.734955878489E-03
    40     5.440549053154E-02
    41     4.910225508327E-03
    42    -9.286594065716E-02
    43     1.360373610862E-03
    44    -6.914062543867E-02
    45    -2.181990319339E-02
    46     1.478011559997E-01
    47    -1.760809891088E-01
    48     9.913260000718E-02
    49     2.217133462347E-01
    50    -6.472615430474E-01
    51     3.356888439034E-02
    52    -4.639416851325E-02
    53     3.001858977284E-02
    54     6.597645253299E-03
 Sym=  A
 Ene=       2.1034905600
 Spin= Alpha
 Occup=   0.00000000
     1    -1.355359281848E-03
     2     1.006007119647E-01
     3    -3.944379298469E-02
     4    -9.735781006214E-02
     5     1.008995403841E-03
     6    -1.183203201483E-01
     7     1.182517361316E-01
     8     1.845915138180E-01
     9    -4.392193428020E-02
    10     4.246202729146E-01
    11    -4.756987239911E-01
    12    -4.637479026206E-02
    13     1.482416085174E-01
    14    -3.513879007348E-01
    15     1.206090117587E-01
    16    -2.381457956954E-01
    17     4.561614141660E-02
    18     2.440685226815E-02
    19     4.693237462161E-03
    20    -2.090748709425E-01
    21     1.249763813345E-02
    22     2.424369541112E-02
    23     3.235240122763E-02
    24     4.107762335055E-01
    25    -1.787159634610E-02
    26    -1.278357886278E-01
    27    -5.431504069597E-02
    28    -1.484566318151E-01
    29    -1.041609163416E-02
    30     1.774084311903E-01
    31     3.762550202378E-01
    32     9.750221518358E-02
    33     2.996354766718E-02
    34    -3.590033503222E-01
    35    -1.564857749123E-02
    36     3.683809761382E-02
    37    -3.270597091803E-03
    38     1.058731350650E-01
    39     9.153306942392E-02
    40    -8.171597019101E-02
    41    -3.304665956275E-02
    42    -2.876599272639E-01
    43    -2.192537247612E-01
    44     1.469398969823E-01
    45     9.749844697548E-02
    46    -2.774410577250E-01
    47    -4.914567521759E-02
    48    -3.375409580931E-01
    49    -1.292100419901E-01
    50     6.957537910811E-02
    51    -1.502893481717E-01
    52     5.935138364187E-01
    53    -3.007561054987E-02
    54    -6.047643165188E-02
 Sym=  A
 Ene=       2.1037023316
 Spin= Alpha
 Occup=   0.00000000
     1     4.596139695000E-03
     2    -1.816629128599E-01
     3    -6.146338429776E-03
     4    -8.310421106878E-02
     5     3.774201449688E-02
     6     4.035482827616E-01
     7    -4.802771153663E-02
     8     1.989214428764E-01
     9    -8.784979201546E-02
    10     7.571648533341E-02
    11    -9.159562670986E-02
    12    -1.183693859955E-01
    13    -2.289210147793E-01
    14     1.136829495902E-01
    15     1.046434512499E-01
    16    -5.520366243333E-01
    17     8.585139099238E-03
    18     5.595115167622E-02
    19    -1.090030331942E-03
    20     2.646757707301E-03
    21    -1.277201797523E-01
    22    -3.053103782291E-02
    23    -1.973561170326E-02
    24    -9.726966570721E-02
    25     2.641792030788E-01
    26     6.111917075833E-02
    27     8.143009666342E-02
    28    -4.047545147433E-01
    29    -3.140486736598E-01
    30     3.435281624700E-01
    31     2.203350337643E-01
    32    -1.121663808434E-01
    33    -1.562177719167E-01
    34     4.805199200969E-01
    35    -4.335511302566E-02
    36    -4.936346522312E-02
    37    -3.556480251454E-03
    38     1.809249010459E-01
    39    -2.095162471715E-02
    40     4.864802703742E-02
    41    -1.819949771938E-02
    42    -3.093475134296E-01
    43    -1.254288689421E-02
    44    -1.405946694958E-01
    45     6.173068797211E-03
    46     3.315961600980E-01
    47     2.005689831365E-01
    48     3.092159918024E-01
    49     1.927215460859E-01
    50     3.943312349698E-01
    51     5.181088776419E-02
    52     7.362657478931E-02
    53     3.555379437979E-02
    54    -7.196733774478E-03
 Sym=  A
 Ene=       2.1180432462
 Spin= Alpha
 Occup=   0.00000000
     1     1.026190736117E-02
     2    -3.997313109720E-01
     3     7.952201525092E-02
     4    -1.005171342031E-02
     5     5.619279085878E-02
     6     7.168839626382E-01
     7    -2.551104438387E-01
     8     7.944718350303E-02
     9    -8.985612955646E-02
    10    -2.827772332969E-01
    11     2.321751462809E-01
    12    -5.681860883415E-02
    13    -9.885081837571E-02
    14     3.828128657558E-01
    15     4.901489623014E-02
    16    -5.022195001172E-01
    17    -3.688352935650E-02
    18     6.912341706772E-02
    19     1.022710552431E-02
    20    -3.981445911825E-01
    21    -3.212857283273E-02
    22     7.359279193612E-02
    23     5.569435177241E-02
    24     7.126214482361E-01
    25     6.100343129784E-02
    26    -2.592387563112E-01
    27    -8.889250517657E-02
    28    -2.847903313555E-01
    29    -6.875052464928E-02
    30     2.283901571331E-01
    31     3.780621480969E-01
    32    -1.081196738581E-01
    33     4.747544826568E-02
    34    -4.948380973726E-01
    35    -3.697411220250E-02
    36     6.903513238573E-02
    37     1.023037463598E-02
    38    -3.973532821160E-01
    39    -4.864120091884E-02
    40    -6.374128225868E-02
    41     5.563572270080E-02
    42     7.115350204121E-01
    43     1.955944580881E-01
    44     1.802892352332E-01
    45    -8.879628161510E-02
    46    -2.816444369776E-01
    47    -1.633699016630E-01
    48    -1.721719976980E-01
    49    -2.810258333289E-01
    50    -2.721450515141E-01
    51     4.896188719999E-02
    52    -4.977640186091E-01
    53    -3.681265623474E-02
    54     6.865769443338E-02
 Sym=  A
 Ene=       2.6121557854
 Spin= Alpha
 Occup=   0.00000000
     1    -1.006335006806E-02
     2    -4.150925465625E-01
     3     2.576503145836E-02
     4    -3.275637440751E-03
     5     1.499431764797E-02
     6     9.660019121362E-01
     7    -1.419514213320E-01
     8     3.091853959699E-01
     9     1.959904525432E-01
    10     1.012701026732E-01
    11     4.676254526964E-01
    12     1.662658486641E-02
    13    -9.888499555905E-02
    14    -3.582785426584E-01
    15    -4.865999356958E-01
    16    -1.926123372309E-01
    17    -4.774981870983E-01
    18    -4.753668563859E-02
    19    -1.038773143900E-02
    20    -4.224013544530E-01
    21    -7.719970903231E-03
    22     2.387205259877E-02
    23     1.367645699993E-02
    24     9.847449893450E-01
    25    -2.089396325164E-01
    26    -2.823876290757E-01
    27     2.037724371242E-01
    28     1.060402187206E-01
    29    -2.565890327371E-01
    30     4.037235221265E-01
    31    -2.659008646058E-01
    32     2.745549955170E-01
    33    -4.978987530835E-01
    34    -1.967058488056E-01
    35    -4.902655601319E-01
    36    -4.938226290784E-02
    37    -1.032149579787E-02
    38    -4.270131136013E-01
    39    -1.787085445227E-02
    40    -1.945715836166E-02
    41     1.407954338140E-02
    42     9.922978265760E-01
    43     3.506327453940E-01
    44    -3.700942193498E-02
    45     2.043244270425E-01
    46     1.076866633495E-01
    47    -2.242748901553E-01
    48    -4.253726970906E-01
    49     3.722880588991E-01
    50     9.677903558109E-02
    51    -4.991320449905E-01
    52    -2.008823241527E-01
    53    -4.930855961683E-01
    54    -4.858480799612E-02
 Sym=  A
 Ene=       2.6807603668
 Spin= Alpha
 Occup=   0.00000000
     1     6.403103671249E-03
     2    -3.573376233864E-03
     3     3.998207616654E-02
     4     4.211232833605E-02
     5     2.317973168097E-02
     6    -8.776618916789E-02
     7    -5.797900495007E-02
     8    -1.857018830493E-01
     9    -9.197624251852E-02
    10    -4.000093799609E-02
    11    -9.070890672560E-02
    12     3.181674488424E-02
    13     3.930388697532E-02
    14     2.245238032882E-01
    15     1.974658399246E-01
    16    -2.585652709683E-02
    17     1.027939811358E-01
    18     4.887777174262E-02
    19     1.196662916905E-02
    20     4.406814426978E-01
    21    -2.343361474443E-02
    22    -4.285177704179E-02
    23    -5.082003783057E-03
    24    -1.073164262821E+00
    25     3.084646403580E-01
    26     2.909715890703E-01
    27    -2.732233811836E-01
    28    -2.106116152200E-01
    29     2.805409031136E-01
    30    -3.971265203858E-01
    31     2.737505548843E-01
    32    -2.388184263036E-01
    33     4.359242905119E-01
    34     3.565989977828E-01
    35     6.037237819343E-01
    36     3.129536012964E-02
    37    -1.804476985084E-02
    38    -4.301169399579E-01
    39    -6.573251871939E-02
    40     5.454808982051E-02
    41    -1.850021751535E-02
    42     1.140783069607E+00
    43     5.300340961741E-01
    44    -2.614216521054E-01
    45     3.612082464830E-01
    46     2.494223106325E-01
    47    -2.744403274435E-01
    48    -4.949318104622E-01
    49     5.516059483525E-01
    50     1.972444567152E-01
    51    -6.234178080759E-01
    52    -3.262093720352E-01
    53    -6.963347065707E-01
    54    -7.902940822323E-02
 Sym=  A
 Ene=       2.6825398695
 Spin= Alpha
 Occup=   0.00000000
     1    -1.764431278350E-02
     2    -5.075841924702E-01
     3     6.720517967574E-03
     4    -7.196091437377E-02
     5    -6.351981798582E-03
     6     1.294864065176E+00
     7    -8.139830477945E-02
     8     5.821286590829E-01
     9     3.686319408004E-01
    10     2.674311492023E-01
    11     6.132479068872E-01
    12     2.826165672503E-02
    13    -9.942469760358E-02
    14    -5.444838570170E-01
    15    -6.194370739687E-01
    16    -3.994594709032E-01
    17    -7.587111457144E-01
    18    -6.465561798633E-02
    19     1.408321405968E-02
    20     2.408659672211E-01
    21    -7.930748507252E-02
    22    -8.288789517456E-03
    23     2.455308124015E-02
    24    -6.991341281588E-01
    25     3.946511802852E-01
    26     2.098862921583E-01
    27    -2.609977909146E-01
    28    -1.668758669974E-01
    29     1.780997560387E-01
    30    -3.290992208594E-01
    31     3.525153224682E-01
    32    -3.015136078012E-01
    33     4.679682157682E-01
    34     1.721276616299E-01
    35     4.577889188678E-01
    36     7.398290649438E-02
    37     3.058220104473E-03
    38     2.504099991733E-01
    39     1.855375135512E-02
    40     3.253759920490E-02
    41    -1.612333642887E-02
    42    -5.543192681033E-01
    43    -1.528526081606E-01
    44    -1.404800967316E-02
    45    -1.017012091772E-01
    46    -9.733190047362E-02
    47     7.417877941507E-02
    48     2.119976135519E-01
    49    -7.077361011469E-02
    50    -2.358275828511E-02
    51     1.313023321829E-01
    52     2.172236318911E-01
    53     2.819903782469E-01
    54    -1.076736681438E-02
 Sym=  A
 Ene=       2.9454944865
 Spin= Alpha
 Occup=   0.00000000
     1     8.958957907962E-04
     2    -5.277331641552E-02
     3     1.331335063022E-02
     4     1.513007215483E-02
     5     7.349766801848E-03
     6     9.842685500356E-02
     7    -3.422882135318E-01
     8     1.836744577669E-01
     9    -3.407747175890E-01
    10    -5.172206897279E-01
    11    -2.027226968640E-01
    12    -1.811665396957E-01
    13    -1.782274664532E-01
    14    -3.481206300313E-01
    15    -5.244708816041E-01
    16    -8.205585512903E-02
    17     5.262171211884E-01
    18     1.224459337168E-02
    19     5.638606143837E-04
    20    -5.439206394024E-02
    21    -1.843155719854E-02
    22     3.742415840116E-03
    23     7.784676687262E-03
    24     1.070117373980E-01
    25     5.562708713545E-03
    26    -4.127093651575E-01
    27    -3.580451179188E-01
    28    -5.480396973818E-01
    29     2.757121119527E-01
    30    -8.593964349358E-02
    31    -2.327668603590E-01
    32     3.558446507122E-01
    33    -5.669013891677E-01
    34    -8.102938451951E-02
    35     5.550734509358E-01
    36     9.396701850941E-03
    37     9.451869673192E-04
    38    -5.490511729090E-02
    39     4.326055731299E-03
    40    -2.076811320467E-02
    41     8.921501374223E-03
    42     1.011326766710E-01
    43     3.651127006374E-01
    44     2.229960389664E-01
    45    -3.742106903914E-01
    46    -5.700728560555E-01
    47    -6.204022524940E-02
    48     2.933118647550E-01
    49     4.339093028482E-01
    50     2.666012823689E-02
    51    -5.797086039682E-01
    52    -7.917553479127E-02
    53     5.803165905265E-01
    54     9.626461050529E-03
 Sym=  A
 Ene=       2.9771774528
 Spin= Alpha
 Occup=   0.00000000
     1    -4.322442833305E-03
     2    -1.225891806878E-02
     3    -2.692983380929E-02
     4    -2.098838189662E-02
     5    -3.653824540371E-03
     6     9.616926206357E-02
     7    -1.003721393166E-01
     8     1.716054465647E-01
     9    -9.823927668837E-02
    10    -1.748818553056E-01
    11    -3.795706229113E-02
    12    -7.805182556904E-02
    13    -8.645091364292E-02
    14    -2.298896152206E-01
    15    -3.069162069271E-01
    16    -4.384090583244E-02
    17     1.483045937979E-01
    18    -6.479276737214E-03
    19     3.285884948431E-03
    20    -2.670114256566E-02
    21    -2.713076306194E-02
    22     3.077589545327E-02
    23     1.305858259954E-02
    24    -1.009267943378E-02
    25     4.795615889998E-02
    26    -4.168373962093E-01
    27    -3.827046757965E-01
    28    -5.600865505607E-01
    29     2.881342050415E-01
    30    -1.036289702187E-01
    31    -2.510407432332E-01
    32     3.137780589651E-01
    33    -5.284756396452E-01
    34     3.759776056523E-02
    35     6.101107587030E-01
    36    -1.076751898224E-02
    37     9.815589713564E-04
    38     3.392814761199E-02
    39     1.938992545162E-02
    40     3.975101931963E-03
    41    -9.412539714959E-03
    42    -7.396878805036E-02
    43    -5.086414764924E-01
    44    -2.353513422954E-01
    45     4.550822542489E-01
    46     6.956327902158E-01
    47     9.549180935317E-02
    48    -3.522215649566E-01
    49    -6.058200873790E-01
    50    -9.936072634284E-02
    51     7.901196849937E-01
    52    -7.962953414038E-04
    53    -7.182975123675E-01
    54     1.769064598895E-02
 Sym=  A
 Ene=       2.9790887823
 Spin= Alpha
 Occup=   0.00000000
     1     1.406755027324E-03
     2    -3.706600168026E-02
     3     3.059431018436E-02
     4    -3.235305739141E-03
     5     1.247098773431E-02
     6     3.989469403601E-02
     7    -5.019362952575E-01
     8     2.911912295733E-01
     9    -4.992121000093E-01
    10    -7.446192145486E-01
    11    -2.916371188625E-01
    12    -2.690308549967E-01
    13    -2.150337355005E-01
    14    -5.602972950645E-01
    15    -7.812038889597E-01
    16     1.581654404574E-02
    17     7.889570567988E-01
    18    -1.362737702189E-02
    19     3.193360244525E-03
    20     2.507530682077E-02
    21    -2.264816012751E-02
    22    -2.598092692180E-03
    23    -2.657956734705E-03
    24    -9.744172765817E-02
    25     8.840213541395E-02
    26     4.074883346165E-01
    27     3.052516807852E-01
    28     4.825607215384E-01
    29    -2.455510113771E-01
    30     4.553618757987E-02
    31     3.072367525747E-01
    32    -3.750106500202E-01
    33     6.169844544166E-01
    34     2.185949845254E-02
    35    -4.795835245442E-01
    36     1.551185447949E-02
    37    -4.396235078577E-03
    38     5.683766081064E-03
    39     5.129783076461E-03
    40     4.114846863890E-02
    41    -9.412363118893E-03
    42     6.690453193561E-02
    43    -6.739536956366E-02
    44    -1.362096966726E-01
    45     1.525178857563E-01
    46     2.036562564005E-01
    47    -2.112224639286E-04
    48    -1.223753454627E-01
    49    -7.367035157286E-02
    50    -1.131919583724E-02
    51     1.070410767652E-01
    52    -4.939003889080E-02
    53    -2.479188581116E-01
    54     2.203848514881E-03
