9
vibe-qc final geometry (bohr -> Å, CODATA 2018 a₀) energy=-228.0534088736
O    1.6683886960  -0.1115478276   0.0742475056
H    1.1077983330   0.6474477146  -0.0747133209
H    2.0545227651   0.0208527077   0.9291699090
O   -0.7354801143   1.5009616874   0.0736950941
H   -1.1157686155   0.6371892065  -0.0742702242
H   -1.0468066703   1.7673311839   0.9294762515
O   -0.9324891179  -1.3888596203   0.0736720540
H    0.0069235469  -1.2834101519  -0.0746782856
H   -1.0100888232  -1.7899649004   0.9304010165
