[Molden Format]
[Title]
 output-h2o-rhf
[Atoms] (AU)
 O        1     8       0.000000000000       0.000000000000       0.000000000000
 H        2     1       0.000000000000       1.499219890150      -1.159365874719
 H        3     1       0.000000000000      -1.499219890150      -1.159365874719
[GTO]
  1 0
 s   6  1.00
      5.4846717000E+03      1.8310998055E-03
      8.2523495000E+02      1.3950098518E-02
      1.8804696000E+02      6.8445092731E-02
      5.2964500000E+01      2.3271427528E-01
      1.6897570000E+01      4.7019295006E-01
      5.7996353000E+00      3.5852086192E-01
 s   3  1.00
      1.5539616000E+01     -1.1077750383E-01
      3.5999336000E+00     -1.4802630511E-01
      1.0137618000E+00      1.1307670390E+00
 p   3  1.00
      1.5539616000E+01      7.0874299543E-02
      3.5999336000E+00      3.3975279781E-01
      1.0137618000E+00      7.2715859531E-01
 s   1  1.00
      2.7000580000E-01      1.0000000000E+00
 p   1  1.00
      2.7000580000E-01      1.0000000000E+00
 d   1  1.00
      8.0000000000E-01      1.0000000000E+00

  2 0
 s   3  1.00
      1.8731137000E+01      3.3494599523E-02
      2.8253937000E+00      2.3472694666E-01
      6.4012170000E-01      8.1375731841E-01
 s   1  1.00
      1.6127780000E-01      1.0000000000E+00

  3 0
 s   3  1.00
      1.8731137000E+01      3.3494599523E-02
      2.8253937000E+00      2.3472694666E-01
      6.4012170000E-01      8.1375731841E-01
 s   1  1.00
      1.6127780000E-01      1.0000000000E+00

[5D]
[MO]
 Sym=  A
 Ene=     -20.5638653257
 Spin= Alpha
 Occup=   2.00000000
     1    -9.958229075338E-01
     2    -2.176593860553E-02
     3     1.532364680852E-17
     4    -1.941799729172E-16
     5     1.594154918774E-03
     6     7.834178526160E-03
     7    -9.396812726576E-18
     8     4.522709390690E-16
     9    -1.801778225088E-03
    10     3.657758008286E-05
    11    -5.073465799014E-20
    12    -1.430951894164E-16
    13    -3.364770054429E-04
    14     1.261115522829E-18
    15    -3.517561383646E-04
    16    -1.789732800231E-03
    17    -3.517561383643E-04
    18    -1.789732800231E-03
 Sym=  A
 Ene=      -1.3190129722
 Spin= Alpha
 Occup=   2.00000000
     1    -2.150150030554E-01
     2     4.709713748378E-01
     3     1.451400405222E-16
     4     4.169761837545E-16
     5    -8.064175081912E-02
     6     5.067590754274E-01
     7     1.935615002398E-17
     8    -6.112566015651E-16
     9    -5.755271776993E-02
    10     5.324393180384E-03
    11    -4.584695531986E-18
    12     1.129632173356E-16
    13    -1.617233264618E-02
    14    -5.839807329172E-18
    15     1.206439755274E-01
    16    -5.328439025478E-03
    17     1.206439755274E-01
    18    -5.328439025479E-03
 Sym=  A
 Ene=      -0.6824719243
 Spin= Alpha
 Occup=   2.00000000
     1    -3.422106951996E-16
     2    -2.814691475763E-16
     3     1.634413647242E-15
     4    -4.995086585061E-01
     5     2.472218594553E-15
     6     3.558465719569E-15
     7     1.093231749819E-15
     8    -3.150120638044E-01
     9     4.435699580872E-16
    10     2.036975173958E-17
    11    -1.077946706877E-16
    12     5.068995966885E-02
    13    -6.819294909733E-17
    14    -3.851894205135E-17
    15    -2.260998764890E-01
    16    -1.223792541155E-01
    17     2.260998764890E-01
    18     1.223792541155E-01
 Sym=  A
 Ene=      -0.5624243320
 Spin= Alpha
 Occup=   2.00000000
     1    -6.811162366021E-02
     2     1.686097443038E-01
     3     2.750620330086E-16
     4     1.724524079173E-15
     5     5.494885916451E-01
     6     2.719251458813E-01
     7     3.902425942050E-16
     8     1.663573770679E-15
     9     4.091497009274E-01
    10    -3.271552637368E-02
    11    -1.576749927767E-17
    12    -4.834468364891E-16
    13     8.351575929986E-03
    14    -6.268258109382E-18
    15    -1.433435058679E-01
    16    -8.894016417996E-02
    17    -1.433435058679E-01
    18    -8.894016417997E-02
 Sym=  A
 Ene=      -0.4946750009
 Spin= Alpha
 Occup=   2.00000000
     1     4.020381192839E-17
     2    -4.316738770861E-16
     3     6.404646923210E-01
     4     1.107045418372E-15
     5    -2.304641851911E-16
     6     7.685343453402E-16
     7     5.106476770068E-01
     8     1.149750263683E-15
     9    -6.727768829924E-16
    10     3.516739549272E-17
    11    -3.158264864653E-02
    12    -1.402406254836E-16
    13    -7.428589023932E-17
    14    -1.048658943388E-16
    15     1.380967627584E-16
    16    -3.331433304108E-16
    17    -2.523334532761E-16
    18    -5.812376201635E-16
 Sym=  A
 Ene=       0.2039085464
 Spin= Alpha
 Occup=   0.00000000
     1     8.534807893775E-02
     2    -1.059344247308E-01
     3     9.830587882069E-17
     4    -8.703249024337E-15
     5     2.358796060601E-01
     6    -1.116071844339E+00
     7    -1.843899366688E-17
     8    -1.899003678071E-14
     9     4.943729316047E-01
    10    -1.354594694847E-02
    11     5.230658597603E-18
    12     4.052891198294E-16
    13     6.824988640499E-03
    14    -5.749275286789E-17
    15     6.599056787485E-02
    16     9.629806826180E-01
    17     6.599056787486E-02
    18     9.629806826179E-01
 Sym=  A
 Ene=       0.2916303696
 Spin= Alpha
 Occup=   0.00000000
     1     2.696964138106E-15
     2    -8.779029959755E-15
     3    -2.641932858832E-17
     4     3.434650117401E-01
     5     4.863194336970E-15
     6    -2.036466943284E-14
     7    -7.222527636731E-17
     8     8.123407089554E-01
     9     1.383554620763E-14
    10    -3.474924286308E-16
    11    -6.172273860173E-17
    12    -2.010217188734E-02
    13     9.037756744601E-17
    14     8.461573883905E-17
    15    -6.124547172247E-02
    16    -1.301194712708E+00
    17     6.124547172247E-02
    18     1.301194712708E+00
 Sym=  A
 Ene=       1.0031402043
 Spin= Alpha
 Occup=   0.00000000
     1    -1.528232817918E-15
     2     7.073331138807E-15
     3     1.710045350435E-15
     4     1.428428772730E-01
     5     1.517368138874E-15
     6     1.201423133725E-15
     7    -1.858630396505E-15
     8     4.817245427216E-01
     9    -1.527341887004E-14
    10     5.678554498700E-16
    11     2.400216363970E-16
    12     2.019434263223E-01
    13     2.794664462415E-15
    14     2.394417777550E-16
    15    -8.403549691257E-01
    16     5.909145569719E-01
    17     8.403549691257E-01
    18    -5.909145569719E-01
 Sym=  A
 Ene=       1.1083279930
 Spin= Alpha
 Occup=   0.00000000
     1    -5.875473864179E-02
     2     2.932732193184E-01
     3    -2.098058784449E-15
     4    -8.266029325412E-16
     5    -3.820015543807E-01
     6    -2.064528197107E-01
     7     2.199134170020E-15
     8    -9.047977834290E-15
     9    -8.775951851003E-02
    10     1.385121489592E-02
    11    -3.057765176786E-17
    12    -4.985307063003E-15
    13     1.990367196035E-01
    14     5.040034782077E-17
    15    -8.589321625390E-01
    16     5.414865833073E-01
    17    -8.589321625390E-01
    18     5.414865833073E-01
 Sym=  A
 Ene=       1.1683800507
 Spin= Alpha
 Occup=   0.00000000
     1     3.154470725846E-17
     2     1.463735491600E-15
     3     9.621968277010E-01
     4     6.085773439148E-16
     5    -7.016732894274E-15
     6    -4.124516024755E-15
     7    -1.036460077127E+00
     8    -2.821151384382E-15
     9     8.563049862891E-15
    10    -2.250773636214E-16
    11     1.547181739288E-02
    12     5.396442538461E-17
    13     3.190447221388E-17
    14     1.703026829698E-16
    15     2.249053093588E-15
    16     1.886853386664E-15
    17    -1.964870396335E-15
    18     2.796104746092E-15
 Sym=  A
 Ene=       1.2041855238
 Spin= Alpha
 Occup=   0.00000000
     1     4.827146706720E-02
     2    -4.075468662998E-01
     3    -6.152659278795E-15
     4    -6.758518418949E-15
     5    -8.895230648408E-01
     6     1.803760484264E-01
     7     6.567748652085E-15
     8     1.232126369255E-14
     9     1.122897063870E+00
    10    -2.266086935323E-02
    11    -1.001349912657E-16
    12     3.529704011787E-15
    13    -5.895100508717E-02
    14     4.775066980622E-17
    15     1.933894736913E-01
    16     6.026345740557E-02
    17     1.933894736913E-01
    18     6.026345740557E-02
 Sym=  A
 Ene=       1.3689037076
 Spin= Alpha
 Occup=   0.00000000
     1    -1.609057778043E-17
     2     5.751524073762E-15
     3    -1.200198656567E-15
     4     1.025137028920E+00
     5    -6.885087795832E-15
     6    -1.253400731755E-14
     7     1.471926059199E-15
     8    -1.534489172779E+00
     9     1.225338926131E-14
    10     8.893976185752E-16
    11    -5.088542058100E-16
    12    -2.213280156943E-02
    13    -1.971170980533E-15
    14     9.677916362027E-16
    15    -4.221997546133E-02
    16     8.148570898734E-01
    17     4.221997546134E-02
    18    -8.148570898734E-01
 Sym=  A
 Ene=       1.6540102138
 Spin= Alpha
 Occup=   0.00000000
     1     6.578896326075E-02
     2    -1.578181706803E+00
     3     2.995028352235E-15
     4     4.371565172337E-15
     5     2.609962200285E-01
     6     2.390955094984E+00
     7    -2.617561671783E-15
     8    -8.806475862290E-15
     9    -7.129978416608E-01
    10     4.262227873694E-02
    11    -3.448548137559E-20
    12    -2.804945745908E-15
    13     2.612565143260E-01
    14     1.821412301704E-16
    15    -2.176176602562E-01
    16    -5.876239803604E-01
    17    -2.176176602562E-01
    18    -5.876239803604E-01
 Sym=  A
 Ene=       2.0318416464
 Spin= Alpha
 Occup=   0.00000000
     1     1.122266281628E-03
     2    -1.103449385263E-01
     3     1.958124523614E-16
     4     1.523081287503E-15
     5     1.265098380699E-02
     6     2.030074399231E-01
     7    -2.819704310263E-16
     8    -2.184039499698E-15
     9    -1.266465154696E-01
    10    -9.884532283757E-01
    11    -4.429598846155E-15
    12    -4.407456923214E-16
    13    -1.168164286321E-01
    14    -4.358719533473E-14
    15    -7.111926814699E-02
    16    -3.659264862737E-02
    17    -7.111926814699E-02
    18    -3.659264862737E-02
 Sym=  A
 Ene=       2.0442740284
 Spin= Alpha
 Occup=   0.00000000
     1    -3.435980224419E-17
     2     4.632667086578E-15
     3     5.802276885117E-16
     4     1.161765522994E-15
     5    -6.771604099859E-16
     6    -8.601725211025E-15
     7     7.490152392168E-16
     8    -1.623192382819E-15
     9     5.546688580856E-15
    10     4.325583304655E-14
    11     3.496675284779E-14
    12    -1.486168727963E-16
    13     5.255135254630E-15
    14    -1.000000000000E+00
    15     2.457373032330E-15
    16     3.099154578449E-15
    17     3.640104255249E-15
    18     4.531218072851E-17
 Sym=  A
 Ene=       2.0754304676
 Spin= Alpha
 Occup=   0.00000000
     1    -6.392298514775E-18
     2     5.197178923255E-16
     3    -5.343943560189E-03
     4    -6.935264023030E-16
     5    -9.283528757961E-17
     6    -9.600471461139E-16
     7    -3.218343626537E-02
     8     1.704053531050E-15
     9     6.214726513862E-16
    10     4.387296276423E-15
    11    -9.993813882453E-01
    12    -1.075300689944E-15
    13     4.966878292249E-16
    14    -3.510374592559E-14
    15    -7.203609800884E-16
    16     2.514913367363E-18
    17     1.346174467589E-15
    18     3.682363928628E-16
 Sym=  A
 Ene=       2.5755405296
 Spin= Alpha
 Occup=   0.00000000
     1    -1.335853630011E-02
     2    -5.691579385349E-01
     3     1.240827675417E-15
     4    -1.372454514740E-15
     5     8.055812623701E-02
     6     1.220199257789E+00
     7    -8.674448826725E-16
     8     6.744212667723E-15
     9    -6.662404519880E-01
    10     1.490139052690E-01
    11     3.267770940077E-17
    12    -1.184353655520E-14
    13    -1.054836987605E+00
    14    -4.700092740738E-17
    15    -7.675009515341E-01
    16    -9.009658220697E-02
    17    -7.675009515341E-01
    18    -9.009658220697E-02
 Sym=  A
 Ene=       2.8677240840
 Spin= Alpha
 Occup=   0.00000000
     1     2.275857956553E-16
     2     7.580298915307E-15
     3     7.050042300886E-16
     4    -6.886683714252E-02
     5    -2.134350549669E-15
     6    -1.492437789629E-14
     7    -5.074240388826E-16
     8     7.844367014994E-01
     9     8.627276192708E-15
    10    -1.128681236940E-15
    11     1.232267608920E-15
    12    -1.232344992369E+00
    13     8.976866473165E-15
    14     4.084052836933E-16
    15    -8.675122457502E-01
    16     6.740263385561E-02
    17     8.675122457502E-01
    18    -6.740263385561E-02
