10
S22-12 (DD) pyrazine-dimer — monoB (Jurečka 2006)
C      -0.33800310      2.08006080      1.13004520
C       0.85402540      1.35934710      1.13063080
N       1.47017870      0.99075980      0.00000000
C       0.85402540      1.35934710     -1.13063080
C      -0.33800310      2.08006080     -1.13004520
N      -0.95230590      2.45288360      0.00000000
H      -0.81037580      2.36430330      2.06186430
H       1.32085830      1.06706100      2.06239860
H       1.32085830      1.06706100     -2.06239860
H      -0.81037580      2.36430330     -2.06186430
