20
S22-12 (DD) pyrazine-dimer — dimer (Jurečka 2006)
C      -1.24718940     -1.17182120     -0.69613880
C      -1.24718940     -1.17182120      0.69613880
N      -0.25895100     -1.72357710      1.41447960
C       0.73153270     -2.26522210      0.69672880
C       0.73153270     -2.26522210     -0.69672880
N      -0.25895100     -1.72357710     -1.41447960
H      -2.06343630     -0.72231990     -1.24727970
H      -2.06343630     -0.72231990      1.24727970
H       1.54880040     -2.71282820      1.24756040
H       1.54880040     -2.71282820     -1.24756040
C      -0.33800310      2.08006080      1.13004520
C       0.85402540      1.35934710      1.13063080
N       1.47017870      0.99075980      0.00000000
C       0.85402540      1.35934710     -1.13063080
C      -0.33800310      2.08006080     -1.13004520
N      -0.95230590      2.45288360      0.00000000
H      -0.81037580      2.36430330      2.06186430
H       1.32085830      1.06706100      2.06239860
H       1.32085830      1.06706100     -2.06239860
H      -0.81037580      2.36430330     -2.06186430
