13
S22-22 (MX) phenol-dimer — monoB (Jurečka 2006)
O       1.35311680      1.93827240      0.47231330
C       2.03697470      0.78650430      0.14954910
H       1.78428460      2.34874950      1.22971100
C       1.59040260      0.06968600     -0.95741530
C       2.24173670     -1.10697650     -1.31281100
C       3.33156740     -1.56656030     -0.57486360
C       3.76968380     -0.83969010      0.52864390
C       3.12248360      0.33834980      0.89604910
H       0.74455120      0.43679830     -1.52185830
H       1.89214630     -1.66497260     -2.17018430
H       3.83302270     -2.48115370     -0.85666660
H       4.61376320     -1.18501010      1.10926350
H       3.45988540      0.90303760      1.75694890
