12
S22-17 (MX) benzene-h2o — monoA (Jurečka 2006)
C       0.78061170     -0.60988750     -1.20754260
C       0.47840390      0.75104060     -1.20790400
C       0.32765920      1.43185730      0.00000000
C       0.47840390      0.75104060      1.20790400
C       0.78061170     -0.60988750      1.20754260
C       0.93215100     -1.28996140      0.00000000
H       0.89666880     -1.13760510     -2.14414820
H       0.35738950      1.27820910     -2.14405460
H       0.09185930      2.48714070      0.00000000
H       0.35738950      1.27820910      2.14405460
H       0.89666880     -1.13760510      2.14414820
H       1.16900640     -2.34516680      0.00000000
