13
S22-6 (HB) 2-pyridone-2-aminopyridine — monoB (Jurečka 2006)
N       1.43276160      0.36397030     -0.01595080
C       2.11542000     -0.78034500      0.16810990
C       3.52375860     -0.80160960      0.15450270
C       4.21858970      0.37357830     -0.05259290
C       3.50997080      1.56150140     -0.24497630
C       2.12801380      1.49533240     -0.21753740
H       4.04592060     -1.73613560      0.30768830
H       5.29994260      0.36660090     -0.06633490
H       4.01109230      2.50243130     -0.41300520
H       1.53398780      2.38938370     -0.36705650
N       1.38831230     -1.90830380      0.41981490
H       1.86947140     -2.78127730      0.29403850
H       0.40890670     -1.90799420      0.13008600
