12
S22-20 (MX) benzene-dimer-t — monoB (Jurečka 2006)
C      -1.39406330      0.00000000     -2.45415240
C      -0.69704680      1.20723780     -2.45462770
C       0.69704680      1.20723780     -2.45462770
C       1.39406330      0.00000000     -2.45415240
C       0.69704680     -1.20723780     -2.45462770
C      -0.69704680     -1.20723780     -2.45462770
H      -2.47539950      0.00000000     -2.45032210
H      -1.23823210      2.14356550     -2.45367640
H       1.23823210      2.14356550     -2.45367640
H       2.47539950      0.00000000     -2.45032210
H       1.23823210     -2.14356550     -2.45367640
H      -1.23823210     -2.14356550     -2.45367640
