12
S22-18 (MX) benzene-nh3 — monoA (Jurečka 2006)
C      -0.73928100      0.51587850     -1.20710790
C      -1.42614420      0.39654550      0.00000000
C      -0.73928100      0.51587850      1.20710790
C       0.63422690      0.75463980      1.20707350
C       1.32104340      0.87375660      0.00000000
C       0.63422690      0.75463980     -1.20707350
H      -1.27194950      0.42063160     -2.14328940
H      -2.49022050      0.20523810      0.00000000
H      -1.27194950      0.42063160      2.14328940
H       1.16680050      0.84748850      2.14369500
H       2.38635850      1.05963120      0.00000000
H       1.16680050      0.84748850     -2.14369500
