25
S22-6 (HB) 2-pyridone-2-aminopyridine — dimer (Jurečka 2006)
O      -1.39762130     -1.88583680     -0.36730610
N      -1.46425500      0.36418280      0.01923010
C      -4.18573980      0.36966690      0.03609600
C      -3.48325980      1.57831110      0.25007520
C      -2.11795020      1.53070480      0.23383830
C      -2.07738330     -0.86374920     -0.18994140
C      -3.51560320     -0.80519500     -0.17575850
H      -5.26780450      0.37074280      0.04114190
H      -3.99203340      2.51275600      0.42144140
H      -1.49291960      2.39840960      0.38850180
H      -4.04012260     -1.73484520     -0.33792690
H      -0.42652660      0.36121270      0.00735380
N       1.43276160      0.36397030     -0.01595080
C       2.11542000     -0.78034500      0.16810990
C       3.52375860     -0.80160960      0.15450270
C       4.21858970      0.37357830     -0.05259290
C       3.50997080      1.56150140     -0.24497630
C       2.12801380      1.49533240     -0.21753740
H       4.04592060     -1.73613560      0.30768830
H       5.29994260      0.36660090     -0.06633490
H       4.01109230      2.50243130     -0.41300520
H       1.53398780      2.38938370     -0.36705650
N       1.38831230     -1.90830380      0.41981490
H       1.86947140     -2.78127730      0.29403850
H       0.40890670     -1.90799420      0.13008600
