[Molden Format]
[Title]
 output-h2o-opt
[Atoms] (AU)
 O        1     8      -0.000000000000      -0.000000000003      -0.051044514389
 H        2     1       0.000000000000       1.426161084412      -1.133843617526
 H        3     1      -0.000000000000      -1.426161084409      -1.133843617523
[GTO]
  1 0
 s   6  1.00
      5.4846717000E+03      1.8310998055E-03
      8.2523495000E+02      1.3950098518E-02
      1.8804696000E+02      6.8445092731E-02
      5.2964500000E+01      2.3271427528E-01
      1.6897570000E+01      4.7019295006E-01
      5.7996353000E+00      3.5852086192E-01
 s   3  1.00
      1.5539616000E+01     -1.1077750383E-01
      3.5999336000E+00     -1.4802630511E-01
      1.0137618000E+00      1.1307670390E+00
 p   3  1.00
      1.5539616000E+01      7.0874299543E-02
      3.5999336000E+00      3.3975279781E-01
      1.0137618000E+00      7.2715859531E-01
 s   1  1.00
      2.7000580000E-01      1.0000000000E+00
 p   1  1.00
      2.7000580000E-01      1.0000000000E+00
 d   1  1.00
      8.0000000000E-01      1.0000000000E+00

  2 0
 s   3  1.00
      1.8731137000E+01      3.3494599523E-02
      2.8253937000E+00      2.3472694666E-01
      6.4012170000E-01      8.1375731841E-01
 s   1  1.00
      1.6127780000E-01      1.0000000000E+00

  3 0
 s   3  1.00
      1.8731137000E+01      3.3494599523E-02
      2.8253937000E+00      2.3472694666E-01
      6.4012170000E-01      8.1375731841E-01
 s   1  1.00
      1.6127780000E-01      1.0000000000E+00

[5D]
[MO]
 Sym=  A
 Ene=     -20.5522554084
 Spin= Alpha
 Occup=   2.00000000
     1    -9.957799280814E-01
     2    -2.202642878270E-02
     3    -7.047922868545E-20
     4     3.747585129469E-15
     5     1.636487102213E-03
     6     8.173689840116E-03
     7     1.271055135105E-18
     8    -1.383211375829E-15
     9    -1.794881206582E-03
    10     1.803968296530E-05
    11     3.595143082482E-19
    12    -5.440267925189E-15
    13    -2.685134560979E-04
    14     1.020130330639E-18
    15    -2.349780836520E-04
    16    -1.964250346750E-03
    17    -2.349780836381E-04
    18    -1.964250346775E-03
 Sym=  A
 Ene=      -1.3454915700
 Spin= Alpha
 Occup=   2.00000000
     1    -2.139194851761E-01
     2     4.683485289924E-01
     3     1.314425165941E-16
     4    -9.853351288890E-13
     5    -9.354828782114E-02
     6     4.901370819394E-01
     7     1.265790383210E-17
     8    -9.831721515011E-14
     9    -5.583279286860E-02
    10     5.605146204035E-03
    11    -1.957567278174E-17
    12     1.156841400126E-13
    13    -1.645326913404E-02
    14     4.810505758277E-17
    15     1.329380639246E-01
    16    -8.803042544415E-03
    17     1.329380639262E-01
    18    -8.803042544692E-03
 Sym=  A
 Ene=      -0.7141165373
 Spin= Alpha
 Occup=   2.00000000
     1    -5.773647070641E-13
     2     1.170807350697E-12
     3     4.512039461468E-16
     4     5.084934062210E-01
     5     2.742418710219E-12
     6     2.795227984602E-12
     7     3.485014796084E-16
     8     3.043511330927E-01
     9     1.272090263210E-12
    10    -1.307109793256E-13
    11    -1.070925511122E-16
    12    -5.087922660563E-02
    13    -9.743783060075E-15
    14     5.655114319780E-17
    15     2.325003645507E-01
    16     1.069018311960E-01
    17    -2.325003645517E-01
    18    -1.069018311956E-01
 Sym=  A
 Ene=      -0.5705522172
 Spin= Alpha
 Occup=   2.00000000
     1    -6.988392136420E-02
     2     1.700454404101E-01
     3    -5.796609637923E-16
     4    -2.050845501382E-12
     5     5.573514407073E-01
     6     2.832091108141E-01
     7    -2.597100560113E-16
     8    -1.672426398709E-12
     9     4.100938958930E-01
    10    -3.511318268311E-02
    11     6.758885330895E-17
    12     1.746044555812E-13
    13     6.520925208820E-03
    14    -2.970688591190E-17
    15    -1.400292502207E-01
    16    -7.403523196683E-02
    17    -1.400292502191E-01
    18    -7.403523196513E-02
 Sym=  A
 Ene=      -0.4978614362
 Spin= Alpha
 Occup=   2.00000000
     1    -2.066528114148E-17
     2    -3.506760440072E-17
     3     6.387932164887E-01
     4    -7.772551761265E-16
     5     4.932229499380E-16
     6     6.637127304143E-16
     7     5.123457947119E-01
     8    -1.104559137627E-15
     9     8.075139611699E-17
    10    -4.741553349974E-17
    11    -3.415603972308E-02
    12     1.391660044605E-16
    13    -3.333144024739E-17
    14    -1.292220070091E-13
    15    -1.829558060874E-16
    16     4.635553398435E-16
    17    -1.226958108556E-16
    18    -1.204990012023E-15
 Sym=  A
 Ene=       0.2170562369
 Spin= Alpha
 Occup=   0.00000000
     1    -8.663654464101E-02
     2     1.016963556193E-01
     3     4.649450213465E-17
     4     3.137265677752E-12
     5    -2.124084014100E-01
     6     1.216765799229E+00
     7     2.105881686552E-16
     8     5.637019895954E-12
     9    -4.806739412966E-01
    10     1.304648199864E-02
    11    -2.319099715797E-17
    12    -2.886666644730E-14
    13    -8.916993410926E-03
    14     2.028261932047E-17
    15    -5.499849749868E-02
    16    -1.009231488776E+00
    17    -5.499849749730E-02
    18    -1.009231488764E+00
 Sym=  A
 Ene=       0.3071656041
 Spin= Alpha
 Occup=   0.00000000
     1     6.196582992173E-13
     2    -4.365070807814E-13
     3     4.102021918202E-16
     4     3.255775847336E-01
     5     9.550820533906E-13
     6    -1.327304945837E-11
     7     1.401126938972E-15
     8     8.410644302781E-01
     9     3.767372365404E-12
    10    -2.815551890272E-15
    11     3.881968241067E-17
    12    -2.316756903458E-02
    13     2.244038902154E-13
    14     1.050179419363E-16
    15    -4.654354659812E-02
    16    -1.412705125696E+00
    17     4.654354659758E-02
    18     1.412705125714E+00
 Sym=  A
 Ene=       1.0318096032
 Spin= Alpha
 Occup=   0.00000000
     1    -6.586108975347E-13
     2     4.270105127592E-12
     3     1.440945949526E-15
     4     8.826624653313E-02
     5    -6.492211598926E-12
     6    -8.478576970915E-12
     7     1.937402276653E-17
     8     7.081907536884E-01
     9     3.746273271939E-12
    10     6.392969927890E-13
    11     1.580178639272E-16
    12     1.992790895674E-01
    13     3.099175377247E-12
    14     2.508170989571E-16
    15    -8.395377239287E-01
    16     4.210272554532E-01
    17     8.395377239056E-01
    18    -4.210272554321E-01
 Sym=  A
 Ene=       1.1685458480
 Spin= Alpha
 Occup=   0.00000000
     1    -3.786986701013E-14
     2     1.854106091221E-13
     3     9.632872693703E-01
     4     1.215365432193E-15
     5    -7.952110077550E-14
     6    -2.508187042007E-14
     7    -1.035622033392E+00
     8    -3.022462200260E-15
     9    -2.314483243276E-13
    10     1.667160075667E-14
    11     1.414740136393E-02
    12    -1.571809279343E-16
    13     1.218453337246E-13
    14    -9.974287255394E-14
    15    -4.656582952489E-13
    16     2.218166915693E-13
    17    -4.671541328175E-13
    18     2.188356497273E-13
 Sym=  A
 Ene=       1.1689683909
 Spin= Alpha
 Occup=   0.00000000
     1     7.221278370515E-02
     2    -3.521317836427E-01
     3     5.022444141734E-13
     4    -5.501560250674E-12
     5     1.679094256175E-01
     6     4.843907835927E-02
     7    -5.400138594879E-13
     8     2.425041323680E-11
     9     4.266662709954E-01
    10    -3.137967455253E-02
    11     7.308409180324E-15
    12     3.216438272246E-12
    13    -2.338299748815E-01
    14     6.748153344683E-16
    15     8.949912690182E-01
    16    -4.261252162401E-01
    17     8.949912690399E-01
    18    -4.261252162301E-01
 Sym=  A
 Ene=       1.1963529414
 Spin= Alpha
 Occup=   0.00000000
     1     3.083073804379E-02
     2    -2.732100979059E-01
     3     8.079809879992E-15
     4     2.683384506505E-13
     5    -9.615062903405E-01
     6     3.903120061030E-02
     7    -8.770264250497E-15
     8    -4.145212446665E-12
     9     1.089976201629E+00
    10    -1.772856896924E-02
    11     8.698641490581E-17
    12    -1.852990157832E-12
    13     5.538028980855E-03
    14    -2.853163077691E-18
    15    -1.179367860307E-02
    16     2.046521275442E-01
    17    -1.179367861162E-02
    18     2.046521275491E-01
 Sym=  A
 Ene=       1.3854427082
 Spin= Alpha
 Occup=   0.00000000
     1    -4.020502482713E-13
     2     2.084945027233E-12
     3     1.119686988806E-15
     4    -1.040506628014E+00
     5    -1.824244083859E-12
     6    -2.437584051224E-12
     7    -1.170686550722E-15
     8     1.541356524011E+00
     9    -1.954032344266E-12
    10     2.500615836577E-13
    11     4.434105675604E-16
    12    -2.642926704931E-02
    13     3.347292079908E-12
    14    -1.254547686538E-16
    15     1.077857480536E-01
    16    -9.339622036075E-01
    17    -1.077857480671E-01
    18     9.339622036154E-01
 Sym=  A
 Ene=       1.6597604153
 Spin= Alpha
 Occup=   0.00000000
     1    -6.629411823239E-02
     2     1.620053905582E+00
     3     1.381561172708E-16
     4    -9.375313744827E-13
     5    -2.369785222552E-01
     6    -2.544650801791E+00
     7    -6.718551604446E-16
     8     3.839607095881E-12
     9     6.988658296044E-01
    10    -5.425952655862E-02
    11    -3.982852489939E-17
    12    -1.036178334324E-12
    13    -2.366231239954E-01
    14     6.718299609772E-16
    15     1.872139699572E-01
    16     6.615091318433E-01
    17     1.872139699558E-01
    18     6.615091318554E-01
 Sym=  A
 Ene=       2.0211536126
 Spin= Alpha
 Occup=   0.00000000
     1    -4.854156889323E-04
     2     1.187650306059E-01
     3    -2.886701390857E-16
     4     1.985348000344E-13
     5    -4.332678866496E-03
     6    -2.388001263487E-01
     7     4.394728268657E-16
     8    -1.333318935893E-13
     9     1.364941602562E-01
    10     9.902523072575E-01
    11     6.157229019077E-15
    12    -1.577207223973E-12
    13     9.249437629981E-02
    14    -5.034780574866E-15
    15     8.258682085527E-02
    16     4.492573774976E-02
    17     8.258682085507E-02
    18     4.492573775052E-02
 Sym=  A
 Ene=       2.0302809067
 Spin= Alpha
 Occup=   0.00000000
     1    -3.908951599672E-18
     2     5.959927349703E-16
     3     2.379653063621E-13
     4    -6.660196832739E-16
     5    -1.382356772712E-17
     6    -1.174208592099E-15
     7     1.954894972674E-13
     8     2.538096091856E-16
     9     6.610851217483E-16
    10     4.777501704855E-15
    11     7.223026331165E-12
    12     2.199805749355E-16
    13     3.352157132568E-15
    14     1.000000000000E+00
    15     9.614851078310E-16
    16    -3.893333376313E-16
    17    -1.539235374262E-16
    18     8.174160519484E-16
 Sym=  A
 Ene=       2.0671436528
 Spin= Alpha
 Occup=   0.00000000
     1     2.929090048105E-18
     2    -8.723644231979E-16
     3     8.196238007449E-03
     4     5.335580197746E-16
     5     6.862073501060E-18
     6     1.758107693041E-15
     7     3.217305821264E-02
     8    -1.037804796806E-15
     9    -9.728684643194E-16
    10    -6.442216524419E-15
    11     9.993163743205E-01
    12    -1.363158057971E-15
    13    -1.160436958119E-15
    14    -7.231117612318E-12
    15    -8.055051635848E-16
    16     6.645316386716E-16
    17    -4.044183443389E-16
    18    -1.323368009257E-15
 Sym=  A
 Ene=       2.6433960469
 Spin= Alpha
 Occup=   0.00000000
     1    -2.205444586345E-02
     2    -5.590082975699E-01
     3     3.373167640926E-17
     4    -2.819114213203E-12
     5     2.987660566365E-02
     6     1.406186739120E+00
     7     4.641569226742E-16
     8     6.649886190084E-12
     9    -7.315692012192E-01
    10     1.270099975147E-01
    11    -6.375843089069E-16
    12    -1.096425066055E-11
    13    -1.090639687163E+00
    14     3.172393319038E-15
    15    -8.702003890524E-01
    16    -1.279021928626E-01
    17    -8.702003890387E-01
    18    -1.279021928674E-01
 Sym=  A
 Ene=       2.9652246123
 Spin= Alpha
 Occup=   0.00000000
     1     6.262673867371E-13
     2     5.052038187620E-12
     3     2.189608524283E-16
     4    -6.728068828672E-03
     5     1.887446787838E-12
     6    -2.329086532553E-11
     7     9.783994186733E-16
     8     8.998531301611E-01
     9     1.225914806834E-11
    10    -3.463566111972E-12
    11    -1.904224324374E-15
    12    -1.295050789797E+00
    13     1.221303275947E-11
    14     2.359030918365E-16
    15    -9.762290329456E-01
    16     2.486068223464E-02
    17     9.762290329745E-01
    18    -2.486068222874E-02
