[Molden Format]
[Title]
 output-h2-tight-canonical-orth
[Atoms] (AU)
 H        1     1       0.000000000000       0.000000000000       0.000000000000
 H        2     1       0.000000000000       0.000000000000       0.500000000000
[GTO]
  1 0
 s   3  1.00
      3.3870000000E+01      2.5494863235E-02
      5.0950000000E+00      1.9036276589E-01
      1.1590000000E+00      8.5216202225E-01
 s   1  1.00
      3.2580000000E-01      1.0000000000E+00
 s   1  1.00
      1.0270000000E-01      1.0000000000E+00
 p   1  1.00
      1.4070000000E+00      1.0000000000E+00
 p   1  1.00
      3.8800000000E-01      1.0000000000E+00
 d   1  1.00
      1.0570000000E+00      1.0000000000E+00
 s   1  1.00
      2.5260000000E-02      1.0000000000E+00
 p   1  1.00
      1.0200000000E-01      1.0000000000E+00
 d   1  1.00
      2.4700000000E-01      1.0000000000E+00

  2 0
 s   3  1.00
      3.3870000000E+01      2.5494863235E-02
      5.0950000000E+00      1.9036276589E-01
      1.1590000000E+00      8.5216202225E-01
 s   1  1.00
      3.2580000000E-01      1.0000000000E+00
 s   1  1.00
      1.0270000000E-01      1.0000000000E+00
 p   1  1.00
      1.4070000000E+00      1.0000000000E+00
 p   1  1.00
      3.8800000000E-01      1.0000000000E+00
 d   1  1.00
      1.0570000000E+00      1.0000000000E+00
 s   1  1.00
      2.5260000000E-02      1.0000000000E+00
 p   1  1.00
      1.0200000000E-01      1.0000000000E+00
 d   1  1.00
      2.4700000000E-01      1.0000000000E+00

[5D]
[MO]
 Sym=  A
 Ene=      -0.7956261330
 Spin= Alpha
 Occup=   2.00000000
     1     2.967381997684E-01
     2     2.632021600819E-01
     3     5.222942789744E-02
     4     1.465020494123E-15
     5    -4.869027194178E-16
     6    -8.108724912479E-04
     7     4.073242738348E-15
     8    -1.593175905540E-16
     9    -1.689071568726E-01
    10    -1.295270507086E-02
    11     5.968588519488E-16
    12    -1.124257176149E-16
    13    -2.367613260308E-16
    14    -2.298034479322E-17
    15    -4.085116640606E-03
    16     3.706208224260E-15
    17    -2.314458451033E-15
    18    -1.091423061065E-01
    19    -3.384194258823E-02
    20     1.713587253368E-16
    21    -1.035761776393E-15
    22     7.415809249046E-17
    23     1.615050421712E-16
    24     2.967381997685E-01
    25     2.632021600388E-01
    26     5.222942942889E-02
    27    -1.466366623379E-15
    28     3.705392971270E-16
    29     8.108724910094E-04
    30    -3.962508085193E-15
    31     6.018440179906E-16
    32     1.689071568778E-01
    33    -1.295270507094E-02
    34     6.613128678520E-16
    35    -2.747052889652E-16
    36     2.524565457190E-16
    37    -3.644613852705E-17
    38    -4.085116626658E-03
    39    -3.867644434662E-15
    40     2.264690138197E-15
    41     1.091423059838E-01
    42    -3.384194258750E-02
    43     1.119757097270E-15
    44     7.407179445378E-16
    45    -1.212439781123E-16
    46    -6.180309390039E-17
 Sym=  A
 Ene=       0.0479086861
 Spin= Alpha
 Occup=   0.00000000
     1     3.892838331764E-02
     2    -1.040200523703E-02
     3     3.174742816780E-01
     4     4.278761169460E-16
     5     9.295269070931E-16
     6    -3.977988974461E-04
     7     1.488881011137E-15
     8     1.370546935599E-15
     9     4.519319601209E-02
    10     2.367230630153E-03
    11     2.138243031065E-16
    12     3.141077968669E-16
    13    -8.594428434935E-17
    14     9.318751319530E-17
    15    -6.746585163013E-01
    16     8.289718543291E-15
    17    -1.735014458242E-16
    18    -2.833559057844E-01
    19    -3.859659251167E-03
    20    -2.001608817854E-16
    21     4.098683690456E-16
    22    -2.703502589865E-15
    23    -8.163096349696E-16
    24     3.892838331772E-02
    25    -1.040200527598E-02
    26     3.174742840391E-01
    27    -3.318287705604E-16
    28    -6.868982858264E-16
    29     3.977988972719E-04
    30    -1.518284259052E-15
    31    -1.830433584386E-15
    32    -4.519319600745E-02
    33     2.367230630076E-03
    34     2.255119264181E-16
    35     3.673713555943E-16
    36     1.087679017955E-16
    37    -9.944067062002E-17
    38    -6.746585162148E-01
    39    -7.654808416441E-15
    40     6.252900281995E-16
    41     2.833559055939E-01
    42    -3.859659250126E-03
    43     5.967666271060E-16
    44    -1.625563685156E-16
    45     2.732073439881E-15
    46     7.640818029421E-16
 Sym=  A
 Ene=       0.0555046721
 Spin= Alpha
 Occup=   0.00000000
     1    -3.750653934779E-03
     2     6.926200492513E-01
     3    -1.098567322973E+02
     4    -3.382341234038E-14
     5    -3.686846505819E-14
     6    -2.057416726103E-03
     7    -2.592348726975E-13
     8    -2.096157047571E-13
     9     8.774769023153E-02
    10     3.366418850761E-03
    11    -1.913332828077E-14
    12    -2.054784633248E-14
    13     7.223184582383E-15
    14     7.731186697034E-16
    15    -1.510794120373E+01
    16    -4.074843157846E-13
    17    -1.208050080270E-13
    18    -8.959195558598E+00
    19    -6.490200224479E-02
    20    -5.757734491392E-14
    21    -2.412405929851E-14
    22    -7.372055396721E-14
    23    -8.717379354096E-15
    24     3.750653933515E-03
    25    -6.926200492523E-01
    26     1.098567322973E+02
    27     3.320983471139E-14
    28     3.747749519891E-14
    29    -2.057416726951E-03
    30     2.623847188260E-13
    31     2.051903913009E-13
    32     8.774769022610E-02
    33    -3.366418850172E-03
    34    -2.041345453372E-14
    35    -1.969378120474E-14
    36    -7.559915322418E-15
    37    -5.089934898181E-16
    38     1.510794120373E+01
    39     4.062276492866E-13
    40     1.220217042001E-13
    41    -8.959195558609E+00
    42     6.490200224611E-02
    43    -4.551429934227E-14
    44    -4.273280617795E-14
    45     7.099828300204E-14
    46     7.674896638408E-15
 Sym=  A
 Ene=       0.2170265210
 Spin= Alpha
 Occup=   0.00000000
     1     1.239778003794E-02
     2     3.128255073653E+00
     3    -4.813745950899E+02
     4    -6.973449594677E-13
     5    -8.130120466514E-13
     6    -1.756225580831E-02
     7    -6.119751921525E-12
     8    -5.568301838883E-12
     9     3.532443008458E-01
    10     1.217293173164E-02
    11    -4.075111827533E-13
    12    -4.481169510670E-13
    13     4.102014926766E-14
    14     1.213679588847E-14
    15    -1.161377381816E+01
    16    -1.493416224766E-11
    17    -9.990173555967E-12
    18    -3.937864214586E+01
    19    -2.348890204858E-01
    20    -1.463207244542E-12
    21    -9.623274953650E-13
    22    -3.032046878461E-13
    23    -9.209197946281E-14
    24    -1.239778004337E-02
    25    -3.128255073661E+00
    26     4.813745950899E+02
    27     7.034552302227E-13
    28     7.834253239396E-13
    29    -1.756225581254E-02
    30     6.137191902397E-12
    31     5.596982283028E-12
    32     3.532443008121E-01
    33    -1.217293172856E-02
    34    -4.261469754925E-13
    35    -4.437763769456E-13
    36    -4.382812612981E-14
    37    -7.226909271291E-15
    38     1.161377381817E+01
    39     1.528003166464E-11
    40     9.123929336800E-12
    41    -3.937864214595E+01
    42     2.348890204948E-01
    43    -1.234681246730E-12
    44    -1.249385351049E-12
    45     2.935206560876E-13
    46     7.344325881894E-14
 Sym=  A
 Ene=       0.2228590279
 Spin= Alpha
 Occup=   0.00000000
     1    -1.626262581172E-14
     2    -1.019278907728E-12
     3     3.684397400121E-10
     4     5.988821345872E-03
     5    -2.274578708867E-02
     6     7.205154640195E-15
     7    -1.672379215128E-02
     8     6.351764289123E-02
     9    -1.087434303924E-13
    10    -9.010294448903E-15
    11    -1.355401673132E-03
    12     5.147870690416E-03
    13     1.142875970824E-16
    14    -1.257688328378E-16
    15     1.023419846408E-11
    16     1.359033255793E-01
    17    -5.161663589111E-01
    18     3.024018263598E-11
    19     1.955568770383E-13
    20     4.787907871484E-03
    21    -1.818466886145E-02
    22     8.517192890908E-17
    23     9.700857075233E-16
    24     1.667397294489E-14
    25     1.023906938048E-12
    26    -3.684325333802E-10
    27     5.988821345875E-03
    28    -2.274578708863E-02
    29     7.657120986619E-15
    30    -1.672379215120E-02
    31     6.351764289135E-02
    32    -9.737559262726E-14
    33     8.661449257741E-15
    34     1.355401673129E-03
    35    -5.147870690440E-03
    36    -1.120600031138E-16
    37     4.603451742199E-17
    38    -1.023884880372E-11
    39     1.359033255797E-01
    40    -5.161663589119E-01
    41     3.031266464723E-11
    42    -2.005369770076E-13
    43    -4.787907871507E-03
    44     1.818466886145E-02
    45    -5.990830162180E-17
    46    -1.305063288375E-15
 Sym=  A
 Ene=       0.2228590279
 Spin= Alpha
 Occup=   0.00000000
     1     2.467600144796E-15
     2     1.786854732335E-13
     3    -4.876188175221E-11
     4    -2.274578708866E-02
     5    -5.988821345881E-03
     6    -1.395448195867E-15
     7     6.351764289133E-02
     8     1.672379215122E-02
     9     1.492819164785E-14
    10     1.118349035895E-15
    11     5.147870690425E-03
    12     1.355401673127E-03
    13    -9.591635050024E-17
    14     2.608605579821E-16
    15    -1.338617251560E-12
    16    -5.161663589110E-01
    17    -1.359033255794E-01
    18    -4.022115924861E-12
    19    -2.751353582197E-14
    20    -1.818466886143E-02
    21    -4.787907871494E-03
    22     2.598511414959E-15
    23    -1.053674480359E-15
    24    -1.631216367229E-15
    25    -1.733725931824E-13
    26     4.876003141170E-11
    27    -2.274578708864E-02
    28    -5.988821345866E-03
    29    -1.317650643204E-15
    30     6.351764289125E-02
    31     1.672379215126E-02
    32     2.327299978124E-14
    33    -1.381412789478E-15
    34    -5.147870690432E-03
    35    -1.355401673135E-03
    36     3.417954670028E-16
    37    -1.559348870033E-16
    38     1.337648171293E-12
    39    -5.161663589121E-01
    40    -1.359033255797E-01
    41    -3.990524211377E-12
    42     2.480365316772E-14
    43     1.818466886147E-02
    44     4.787907871499E-03
    45    -3.056092111982E-15
    46     8.343432706459E-16
 Sym=  A
 Ene=       0.2836918051
 Spin= Alpha
 Occup=   0.00000000
     1    -6.455736990405E-03
     2     1.170298664242E-01
     3     8.721838580287E-01
     4     2.239090682001E-16
     5     1.996585293589E-15
     6    -3.301865403645E-02
     7    -8.368850420659E-15
     8     5.702012869332E-15
     9    -4.853972352362E-01
    10    -1.719263810686E-02
    11    -2.275926391158E-16
    12     6.682506466389E-16
    13     6.989883232635E-16
    14    -1.909890329154E-16
    15    -4.472488593899E-01
    16     2.493655166411E-14
    17     1.599883632274E-14
    18    -5.587305549524E+00
    19    -2.463680962365E-01
    20    -6.100038541952E-16
    21     1.147122156697E-15
    22    -6.624256597948E-16
    23     1.980574896085E-15
    24    -6.455736991202E-03
    25     1.170298666334E-01
    26     8.721838526384E-01
    27    -2.741649928704E-16
    28    -1.649901018953E-15
    29     3.301865403731E-02
    30     8.579839187175E-15
    31    -6.088653758686E-15
    32     4.853972352112E-01
    33    -1.719263810669E-02
    34    -3.279695476148E-16
    35     1.056586026945E-15
    36    -7.459909828357E-16
    37     2.425299322251E-16
    38    -4.472488593106E-01
    39    -2.468549786632E-14
    40    -9.591318020577E-15
    41     5.587305549945E+00
    42    -2.463680962363E-01
    43    -9.057615523953E-16
    44     1.183119922937E-15
    45     7.457419671093E-16
    46    -1.342293907485E-15
 Sym=  A
 Ene=       0.3002580818
 Spin= Alpha
 Occup=   0.00000000
     1    -1.705739043332E-13
     2     4.787365328451E-11
     3    -1.580250763395E-09
     4    -1.758881471967E-01
     5     2.155251665092E-03
     6    -1.924150421956E-13
     7    -1.977034323717E+00
     8     2.422566037614E-02
     9     5.674974009898E-12
    10     4.269006183362E-14
    11    -1.069029957523E-01
    12     1.309939659217E-03
    13     1.300062252833E-15
    14     4.769133958445E-16
    15     9.178973139661E-12
    16    -8.862710176127E+00
    17     1.085995342440E-01
    18    -1.248123676954E-10
    19    -1.292050321610E-13
    20    -5.160102417188E-01
    21     6.322949842887E-03
    22    -1.130744843545E-14
    23    -1.192511104364E-14
    24     1.721950312701E-13
    25    -4.786863678575E-11
    26     1.580257691885E-09
    27     1.758881471967E-01
    28    -2.155251665092E-03
    29    -1.917679913891E-13
    30     1.977034323717E+00
    31    -2.422566037614E-02
    32     5.693055330932E-12
    33    -4.360081592301E-14
    34    -1.069029957523E-01
    35     1.309939659217E-03
    36    -1.427089626561E-15
    37    -7.301445642679E-16
    38    -9.184268090756E-12
    39     8.862710176127E+00
    40    -1.085995342440E-01
    41    -1.247426643368E-10
    42     1.232032723834E-13
    43    -5.160102417189E-01
    44     6.322949842881E-03
    45     1.360671101628E-14
    46     1.260680839596E-14
 Sym=  A
 Ene=       0.3002580818
 Spin= Alpha
 Occup=   0.00000000
     1    -1.220289438585E-13
     2     3.511762746329E-11
     3    -1.173195072326E-09
     4    -2.155251665116E-03
     5    -1.758881471966E-01
     6    -1.482623242336E-13
     7    -2.422566037627E-02
     8    -1.977034323716E+00
     9     4.195970054693E-12
    10     3.396164707092E-14
    11    -1.309939659230E-03
    12    -1.069029957523E-01
    13    -1.044432552060E-15
    14     6.283966605468E-16
    15     2.448973239455E-12
    16    -1.085995342442E-01
    17    -8.862710176127E+00
    18    -9.289817589513E-11
    19    -9.914090206260E-14
    20    -6.322949842900E-03
    21    -5.160102417187E-01
    22     1.039856528598E-14
    23    -5.880147051537E-15
    24     1.185281185805E-13
    25    -3.512643012520E-11
    26     1.173204523841E-09
    27     2.155251665115E-03
    28     1.758881471966E-01
    29    -1.511020005665E-13
    30     2.422566037627E-02
    31     1.977034323716E+00
    32     4.174327768706E-12
    33    -3.197467248611E-14
    34    -1.309939659229E-03
    35    -1.069029957523E-01
    36     9.231435977837E-16
    37    -6.675888837519E-16
    38    -2.451479115512E-12
    39     1.085995342442E-01
    40     8.862710176127E+00
    41    -9.291152841884E-11
    42     1.037672282511E-13
    43    -6.322949842909E-03
    44    -5.160102417187E-01
    45    -1.034769277278E-14
    46     5.219176786939E-15
 Sym=  A
 Ene=       0.3816491333
 Spin= Alpha
 Occup=   0.00000000
     1    -1.822442983336E-01
     2    -1.065233062748E+00
     3     8.882988386721E-01
     4    -4.343313289845E-15
     5    -3.403608243024E-15
     6     3.057410680889E-02
     7    -1.929449465836E-14
     8    -2.413249811196E-15
     9     1.364381340366E+00
    10     6.254503537660E-02
    11    -2.105752483447E-15
    12    -8.801087871691E-16
    13    -2.806822176950E-16
    14    -6.756645765699E-16
    15    -2.296664501284E-01
    16    -8.790520678545E-15
    17     1.989094716502E-14
    18     4.484620721200E+00
    19     3.621426364195E-01
    20    -3.284090529973E-15
    21     4.090432585098E-16
    22     2.171038045043E-15
    23     7.137073422711E-16
    24    -1.822442983328E-01
    25    -1.065233063005E+00
    26     8.882988518086E-01
    27     4.334881993519E-15
    28     2.925820427797E-15
    29    -3.057410680983E-02
    30     1.829663247276E-14
    31     2.912930136530E-15
    32    -1.364381340336E+00
    33     6.254503537634E-02
    34    -1.880798353807E-15
    35    -1.696639473245E-15
    36     5.139506585705E-16
    37     6.869189350946E-16
    38    -2.296664500735E-01
    39     6.746201257025E-15
    40    -2.244858101819E-14
    41    -4.484620722249E+00
    42     3.621426364215E-01
    43    -3.523095678070E-15
    44    -5.039556414124E-16
    45    -2.388985502292E-15
    46    -1.330173068350E-15
 Sym=  A
 Ene=       0.4792557810
 Spin= Alpha
 Occup=   0.00000000
     1     5.335347570773E-02
     2    -1.481919424117E+01
     3     1.046908375333E+03
     4     1.934224779443E-12
     5     3.259315290033E-12
     6     4.611674941482E-02
     7     1.307627305737E-11
     8     2.088419911395E-11
     9    -1.713238161069E+00
    10    -1.537270699216E-02
    11     1.060026036274E-12
    12     1.863675903387E-12
    13    -1.261007253691E-13
    14    -6.552915131517E-14
    15     7.625432005207E+00
    16    -1.370332377301E-11
    17    -1.494968568802E-12
    18     8.397492751028E+01
    19     1.390683160614E-01
    20     3.033496350941E-12
    21     2.471135550617E-12
    22     6.620213484866E-13
    23     5.604180142077E-13
    24    -5.335347569803E-02
    25     1.481919424116E+01
    26    -1.046908375333E+03
    27    -1.870647767041E-12
    28    -3.326065862120E-12
    29     4.611674942330E-02
    30    -1.351363612382E-11
    31    -2.031483913200E-11
    32    -1.713238161027E+00
    33     1.537270698645E-02
    34     1.188819736337E-12
    35     1.779303250956E-12
    36     1.381069599800E-13
    37     3.613389785859E-14
    38    -7.625432005207E+00
    39     1.389580056320E-11
    40     1.194238447414E-12
    41     8.397492751022E+01
    42    -1.390683160686E-01
    43     1.393222708668E-12
    44     4.604667339565E-12
    45    -6.554790735639E-13
    46    -4.120482967976E-13
 Sym=  A
 Ene=       0.8219040841
 Spin= Alpha
 Occup=   0.00000000
     1    -8.983781413793E-15
     2     3.406825849746E-11
     3    -4.218404354533E-10
     4    -1.084126378448E-16
     5    -9.895679554956E-15
     6    -1.340206292489E-13
     7     2.719543762087E-14
     8    -9.432225484183E-14
     9     3.673181874814E-12
    10    -9.167718361416E-15
    11     1.154650429104E-15
    12    -4.996943537085E-15
    13    -3.670556949778E-03
    14     3.868593840449E-02
    15     1.851277687692E-12
    16     2.382975542005E-14
    17    -9.817695724907E-14
    18    -3.293153648628E-11
    19     9.921010180368E-13
    20    -1.727090431470E-15
    21    -4.235744492826E-14
    22     4.903101979234E-02
    23    -5.167638147423E-01
    24     5.710997119812E-15
    25    -3.407397372983E-11
    26     4.218433210183E-10
    27    -2.296536009178E-16
    28     8.795719895996E-15
    29    -1.365296269292E-13
    30    -2.593601467577E-14
    31     1.037712966686E-13
    32     3.647678304118E-12
    33     1.098416235237E-14
    34     3.763855421829E-16
    35    -6.418429566205E-15
    36    -3.670556949780E-03
    37     3.868593840449E-02
    38    -1.851328444490E-12
    39    -2.380464802317E-14
    40     9.554603170833E-14
    41    -3.294732589420E-11
    42    -9.843288777623E-13
    43     1.400040835742E-14
    44    -8.466444808493E-15
    45     4.903101979238E-02
    46    -5.167638147422E-01
 Sym=  A
 Ene=       0.8219040841
 Spin= Alpha
 Occup=   0.00000000
     1     1.883290613459E-15
     2    -4.180066760706E-12
     3     6.640391793902E-11
     4     1.801267723279E-14
     5    -2.421650880497E-16
     6     1.903320763890E-14
     7     2.171462845249E-13
     8    -1.024711578033E-14
     9    -4.483930406909E-13
    10     2.241645101249E-15
    11     1.133908298377E-14
    12     5.135040170154E-17
    13     3.868593840449E-02
    14     3.670556949779E-03
    15     6.822387897515E-15
    16     2.129695506224E-13
    17    -2.220014650458E-14
    18     5.243279492914E-12
    19    -1.252904709183E-13
    20     6.052943012445E-14
    21    -9.291142481423E-15
    22    -5.167638147423E-01
    23    -4.903101979236E-02
    24    -5.872171375414E-15
    25     4.177092096403E-12
    26    -6.640351647488E-11
    27    -1.763451528334E-14
    28     3.349608436044E-18
    29     1.603091595605E-14
    30    -2.202618827916E-13
    31     1.249270764239E-14
    32    -4.669873923527E-13
    33    -3.174935938127E-16
    34     1.163859807814E-14
    35    -3.227348907004E-16
    36     3.868593840449E-02
    37     3.670556949779E-03
    38    -6.078544870048E-15
    39    -2.113772828731E-13
    40     2.146551354012E-14
    41     5.219926640324E-12
    42     1.315202285643E-13
    43     5.337875583213E-14
    44    -4.280080143911E-17
    45    -5.167638147422E-01
    46    -4.903101979235E-02
 Sym=  A
 Ene=       0.8663230827
 Spin= Alpha
 Occup=   0.00000000
     1     1.130185303098E-02
     2    -3.328263610357E+01
     3     5.887876998833E+02
     4     9.601996299558E-12
     5     1.225729094162E-11
     6     1.171458969590E-01
     7     1.070646518591E-10
     8     1.319110138902E-10
     9    -3.479723329431E+00
    10     2.230741421438E-02
    11     5.864000096160E-12
    12     7.677773519116E-12
    13    -1.125593161102E-13
    14    -5.732524556844E-14
    15     2.542947411032E-01
    16     1.193294980850E-10
    17     1.437308066837E-10
    18     4.642416625193E+01
    19    -1.334229482296E+00
    20     3.050505152818E-11
    21     3.073339891769E-11
    22     5.418598421779E-13
    23     8.418043684443E-13
    24    -1.130185302166E-02
    25     3.328263610359E+01
    26    -5.887876998833E+02
    27    -9.453021020697E-12
    28    -1.243353686638E-11
    29     1.171458969657E-01
    30    -1.084372840475E-10
    31    -1.301374014895E-10
    32    -3.479723329366E+00
    33    -2.230741421956E-02
    34     6.105640641740E-12
    35     7.457483095841E-12
    36     1.060165087279E-13
    37     1.161758775170E-13
    38    -2.542947411042E-01
    39    -1.188137912539E-10
    40    -1.444245332382E-10
    41     4.642416625200E+01
    42     1.334229482276E+00
    43     2.593831661987E-11
    44     3.666116643056E-11
    45    -3.088479657862E-13
    46    -1.913544466771E-12
 Sym=  A
 Ene=       0.9043514291
 Spin= Alpha
 Occup=   0.00000000
     1    -2.698523545087E-13
     2     5.981652086002E-10
     3    -1.264570194714E-08
     4     4.493888285348E-01
     5     2.399617914465E-02
     6    -1.839097962410E-12
     7     5.619282693440E+00
     8     3.000548870241E-01
     9     6.065459434289E-11
    10    -6.684218978979E-13
    11     2.871650148126E-01
    12     1.533385500922E-02
    13    -7.618822490256E-15
    14    -3.742157631003E-15
    15    -2.840616126866E-11
    16     7.217635392414E+00
    17     3.854027089221E-01
    18    -1.000410506781E-09
    19     3.251891575812E-11
    20     1.572794253193E+00
    21     8.398306824901E-02
    22     1.769042681853E-13
    23     8.983333962822E-14
    24     2.458871622799E-13
    25    -5.982083534855E-10
    26     1.264571399332E-08
    27    -4.493888285348E-01
    28    -2.399617914465E-02
    29    -1.853119903661E-12
    30    -5.619282693440E+00
    31    -3.000548870241E-01
    32     6.051200966800E-11
    33     6.786194764551E-13
    34     2.871650148126E-01
    35     1.533385500922E-02
    36     5.047617082476E-15
    37     3.940113479955E-15
    38     2.840952200648E-11
    39    -7.217635392414E+00
    40    -3.854027089221E-01
    41    -1.000700313151E-09
    42    -3.245728655559E-11
    43     1.572794253193E+00
    44     8.398306824899E-02
    45    -1.373475066303E-13
    46    -8.402658320175E-14
 Sym=  A
 Ene=       0.9043514291
 Spin= Alpha
 Occup=   0.00000000
     1     2.256585404692E-13
     2    -6.189542328461E-10
     3     1.294379708715E-08
     4     2.399617914451E-02
     5    -4.493888285347E-01
     6     1.893088538486E-12
     7     3.000548870234E-01
     8    -5.619282693439E+00
     9    -6.254825943791E-11
    10     6.972241347621E-13
    11     1.533385500914E-02
    12    -2.871650148125E-01
    13    -4.933086645768E-15
    14     4.051603446224E-15
    15     2.552041604865E-11
    16     3.854027089217E-01
    17    -7.217635392415E+00
    18     1.023697132851E-09
    19    -3.350528379851E-11
    20     8.398306824900E-02
    21    -1.572794253193E+00
    22     8.531857889859E-14
    23    -8.822705304239E-14
    24    -2.250362058288E-13
    25     6.189717046669E-10
    26    -1.294379936229E-08
    27    -2.399617914450E-02
    28     4.493888285347E-01
    29     1.892023639326E-12
    30    -3.000548870234E-01
    31     5.619282693439E+00
    32    -6.251820043670E-11
    33    -6.971379062968E-13
    34     1.533385500915E-02
    35    -2.871650148125E-01
    36     4.092897012125E-15
    37    -5.822640554435E-15
    38    -2.552234523542E-11
    39    -3.854027089217E-01
    40     7.217635392415E+00
    41     1.023810636497E-09
    42     3.348289109127E-11
    43     8.398306824879E-02
    44    -1.572794253192E+00
    45    -8.043938713517E-14
    46     1.069128379445E-13
 Sym=  A
 Ene=       0.9747862721
 Spin= Alpha
 Occup=   0.00000000
     1     1.776357397564E-01
     2     8.342423401100E-01
     3    -1.023458624331E-01
     4    -6.220619237730E-15
     5     8.894828552685E-15
     6    -8.617763338682E-02
     7     8.684421067094E-14
     8     7.889181451998E-14
     9    -2.099819361145E+00
    10    -7.419459734481E-02
    11     6.637578428769E-16
    12     4.633127963987E-15
    13     2.097595811024E-15
    14    -1.024729527037E-15
    15    -1.279762032517E-01
    16     1.429745965223E-13
    17     8.353310218070E-14
    18    -5.210765274847E+00
    19    -1.122501525283E+00
    20     1.327873230843E-14
    21     1.723797460231E-14
    22    -1.996455035189E-14
    23     5.266216869731E-14
    24     1.776357397566E-01
    25     8.342423397688E-01
    26    -1.023458535462E-01
    27    -4.605630237230E-16
    28    -1.078798992038E-14
    29     8.617763338618E-02
    30    -1.610698704873E-16
    31    -4.676777651575E-14
    32     2.099819361176E+00
    33    -7.419459734388E-02
    34    -3.568355990274E-15
    35     5.125856475568E-15
    36    -2.299651714481E-15
    37     1.724379889952E-15
    38    -1.279762032153E-01
    39    -1.861961412428E-13
    40    -9.815521111200E-14
    41     5.210765274141E+00
    42    -1.122501525319E+00
    43     4.120044409871E-14
    44     2.176366102781E-14
    45     1.788125271783E-14
    46    -5.632462902714E-14
 Sym=  A
 Ene=       0.9944950513
 Spin= Alpha
 Occup=   0.00000000
     1     1.509305053079E-14
     2    -1.946977974975E-11
     3     5.192654018988E-10
     4    -3.216308330799E-02
     5     3.708453168497E-02
     6     2.564487809314E-14
     7     4.461643082300E-01
     8    -5.144343366220E-01
     9    -1.635024078507E-12
    10     6.999998749683E-14
    11     1.587515851330E-02
    12    -1.830430289450E-02
    13     2.784446113888E-15
    14     4.815182705930E-16
    15     2.154321426261E-12
    16    -2.303521998645E-01
    17     2.655996433166E-01
    18     4.132165802617E-11
    19    -2.618086643815E-12
    20    -7.307632040797E-02
    21     8.425812580335E-02
    22    -8.296455171725E-14
    23    -1.195119689236E-14
    24    -2.116883013326E-14
    25     1.943846615680E-11
    26    -5.192652972096E-10
    27    -3.216308330796E-02
    28     3.708453168495E-02
    29     2.479841972564E-14
    30     4.461643082302E-01
    31    -5.144343366219E-01
    32    -1.698557458123E-12
    33    -6.921347023871E-14
    34    -1.587515851332E-02
    35     1.830430289451E-02
    36    -2.692516320452E-15
    37    -1.492167718592E-16
    38    -2.147794706166E-12
    39    -2.303521998639E-01
    40     2.655996433168E-01
    41     4.107450126012E-11
    42     2.665221435796E-12
    43     7.307632040788E-02
    44    -8.425812580339E-02
    45     8.189691507453E-14
    46     8.428769372007E-15
 Sym=  A
 Ene=       0.9944950513
 Spin= Alpha
 Occup=   0.00000000
     1    -1.120712224813E-14
     2     8.610358678512E-13
     3    -2.384083045512E-11
     4    -3.708453168498E-02
     5    -3.216308330799E-02
     6     3.634829277279E-15
     7     5.144343366218E-01
     8     4.461643082300E-01
     9     2.033097837515E-13
    10     1.756596315560E-16
    11     1.830430289450E-02
    12     1.587515851330E-02
    13    -3.425435458146E-15
    14     2.784653601098E-15
    15    -7.623660837795E-14
    16    -2.655996433169E-01
    17    -2.303521998643E-01
    18    -1.547777270005E-12
    19     2.180229024120E-13
    20    -8.425812580339E-02
    21    -7.307632040796E-02
    22     9.326124744913E-14
    23    -8.139680811020E-14
    24    -9.160078002666E-15
    25    -9.686383438254E-13
    26     2.385286971251E-11
    27    -3.708453168494E-02
    28    -3.216308330796E-02
    29    -5.249147633818E-15
    30     5.144343366221E-01
    31     4.461643082302E-01
    32    -5.506619832264E-14
    33     8.083161883651E-15
    34    -1.830430289452E-02
    35    -1.587515851332E-02
    36     3.375551620111E-15
    37    -2.946065458494E-15
    38     9.305637616193E-14
    39    -2.655996433165E-01
    40    -2.303521998641E-01
    41    -2.232070382066E-12
    42    -7.595476114502E-14
    43     8.425812580331E-02
    44     7.307632040794E-02
    45    -9.405537271187E-14
    46     8.241743697411E-14
 Sym=  A
 Ene=       1.0849241272
 Spin= Alpha
 Occup=   0.00000000
     1     1.431893565905E-14
     2    -6.693749460447E-13
     3     1.455023129636E-11
     4    -1.875413988899E-14
     5    -4.477403990270E-14
     6    -5.124417440798E-14
     7     3.362221922876E-13
     8     4.676960028982E-13
     9     3.710653287752E-13
    10     7.514602461617E-14
    11     4.123960415003E-14
    12     7.970097535672E-14
    13     3.285975190992E-03
    14     1.279708043471E-01
    15     3.354418822853E-13
    16     2.153736691317E-13
    17     9.787108964242E-14
    18     9.720711808216E-13
    19    -2.633880653056E-12
    20    -1.198668661441E-12
    21    -2.560874295969E-12
    22    -1.061575177371E-01
    23    -4.134256086154E+00
    24    -9.621037069836E-15
    25     6.949016817277E-13
    26    -1.455067150648E-11
    27    -2.445502921453E-14
    28    -4.838707462613E-14
    29    -4.843803926406E-14
    30     6.040732532302E-14
    31     3.950410907384E-13
    32     4.317808848640E-13
    33    -7.752978323649E-14
    34    -3.342239188489E-14
    35    -7.893252714871E-14
    36    -3.285975190992E-03
    37    -1.279708043471E-01
    38    -3.405273458097E-13
    39    -3.022331558908E-13
    40    -2.996966656962E-13
    41     1.147860624341E-12
    42     2.600899606280E-12
    43     1.281727579702E-12
    44     2.619039390780E-12
    45     1.061575177371E-01
    46     4.134256086154E+00
 Sym=  A
 Ene=       1.0849241272
 Spin= Alpha
 Occup=   0.00000000
     1    -4.055786838093E-15
     2     1.250145993576E-13
     3     1.279453410043E-12
     4     6.788333749944E-14
     5     1.476497680904E-14
     6    -1.295493845583E-15
     7     5.865489829668E-14
     8    -7.975886012874E-13
     9     3.285595755747E-15
    10    -3.565360023687E-15
    11    -2.501178424652E-14
    12    -1.208902691062E-13
    13     1.279708043471E-01
    14    -3.285975190993E-03
    15    -6.169846048491E-14
    16     4.907159871664E-13
    17    -1.630893316039E-13
    18     1.239005815916E-13
    19     9.542652335608E-14
    20     1.637108980746E-12
    21     3.136967697537E-12
    22    -4.134256086154E+00
    23     1.061575177371E-01
    24     4.053394387725E-15
    25    -1.230924120647E-13
    26    -1.284926023899E-12
    27    -1.224698105295E-14
    28     9.930467353414E-14
    29     3.331265351716E-16
    30    -5.782376831871E-13
    31    -2.406483374478E-13
    32     2.101361459580E-14
    33     1.801034797955E-15
    34     6.937898022357E-14
    35     7.438693599661E-14
    36    -1.279708043471E-01
    37     3.285975190993E-03
    38     6.462674552307E-14
    39    -3.710420107089E-13
    40     3.971867084607E-13
    41     7.707892229882E-14
    42    -8.997216175937E-14
    43    -1.473140293909E-12
    44    -3.250188012062E-12
    45     4.134256086154E+00
    46    -1.061575177371E-01
 Sym=  A
 Ene=       1.0891429315
 Spin= Alpha
 Occup=   0.00000000
     1    -5.195815151516E-14
     2     2.863463608972E-12
     3     7.624334615187E-12
     4     5.643275903748E-02
     5    -1.382676663080E-02
     6     1.243515294517E-13
     7    -5.325773522279E-01
     8     1.304884412476E-01
     9    -9.176112531527E-13
    10    -2.093699217453E-13
    11    -9.527266202388E-02
    12     2.334305262699E-02
    13    -2.969971100526E-14
    14     2.178725991568E-14
    15     4.652547947469E-13
    16     1.266988377061E-01
    17    -3.104287813002E-02
    18     9.394734700801E-13
    19     7.351294771520E-12
    20     3.148066624999E+00
    21    -7.713176407544E-01
    22     9.407049871677E-13
    23    -7.828912736589E-13
    24     4.995360468153E-14
    25    -2.869995097151E-12
    26    -7.618601989202E-12
    27     5.643275903746E-02
    28    -1.382676663078E-02
    29     1.221959623583E-13
    30    -5.325773522278E-01
    31     1.304884412476E-01
    32    -9.449223951659E-13
    33     2.114766361257E-13
    34     9.527266202389E-02
    35    -2.334305262700E-02
    36     2.966521680088E-14
    37    -2.174607137060E-14
    38    -4.669066224087E-13
    39     1.266988377063E-01
    40    -3.104287813057E-02
    41     9.465650046671E-13
    42    -7.350082232730E-12
    43    -3.148066624999E+00
    44     7.713176407545E-01
    45    -9.390299319496E-13
    46     7.816551199668E-13
 Sym=  A
 Ene=       1.0891429315
 Spin= Alpha
 Occup=   0.00000000
     1    -4.512787290072E-14
     2     2.437932664221E-12
     3     2.035795918294E-12
     4    -1.382676663085E-02
     5    -5.643275903748E-02
     6     1.014396509234E-13
     7     1.304884412472E-01
     8     5.325773522278E-01
     9    -7.098289324980E-13
    10    -1.684937686086E-13
    11     2.334305262697E-02
    12     9.527266202388E-02
    13     1.359057157241E-13
    14    -1.138256001150E-13
    15     1.940081308849E-13
    16    -3.104287813040E-02
    17    -1.266988377061E-01
    18     4.438145546915E-13
    19     5.974815770852E-12
    20    -7.713176407545E-01
    21    -3.148066624999E+00
    22    -4.356780061045E-12
    23     3.718046936786E-12
    24     4.004399990938E-14
    25    -2.451406596301E-12
    26    -2.028943386462E-12
    27    -1.382676663073E-02
    28    -5.643275903746E-02
    29     9.634694723588E-14
    30     1.304884412479E-01
    31     5.325773522278E-01
    32    -7.599565667011E-13
    33     1.727155667693E-13
    34    -2.334305262703E-02
    35    -9.527266202389E-02
    36    -1.360854346429E-13
    37     1.127441155173E-13
    38    -1.940481814545E-13
    39    -3.104287813018E-02
    40    -1.266988377064E-01
    41     4.063607499524E-13
    42    -5.965439779505E-12
    43     7.713176407544E-01
    44     3.148066624999E+00
    45     4.357324538604E-12
    46    -3.709950333865E-12
 Sym=  A
 Ene=       1.2258021288
 Spin= Alpha
 Occup=   0.00000000
     1     4.715101315803E-02
     2     1.255526659366E+01
     3    -6.606422585510E+02
     4    -2.327243168658E-12
     5    -4.986864444984E-12
     6    -8.168572380618E-02
     7    -1.083146279483E-11
     8    -1.977405624639E-11
     9     1.664170584728E+00
    10     8.055137421581E-02
    11    -1.456668158222E-12
    12    -2.322824073137E-12
    13     1.708030471934E-13
    14    -1.547074066912E-14
    15    -4.547842518460E+00
    16     2.219659398574E-11
    17     1.572573322710E-11
    18    -5.292345692115E+01
    19    -2.921340247591E+00
    20     7.251597292579E-12
    21    -7.447826555711E-12
    22    -5.594716872550E-13
    23     3.332954613420E-12
    24    -4.715101316580E-02
    25    -1.255526659367E+01
    26     6.606422585510E+02
    27     2.525175595629E-12
    28     4.690235160071E-12
    29    -8.168572381354E-02
    30     8.399289970853E-12
    31     2.299785987900E-11
    32     1.664170584664E+00
    33    -8.055137420967E-02
    34    -1.242067799095E-12
    35    -2.774720992043E-12
    36    -1.879866677478E-13
    37     3.999766485698E-14
    38     4.547842518458E+00
    39    -2.148480608245E-11
    40    -1.664074045582E-11
    41    -5.292345692114E+01
    42     2.921340247596E+00
    43    -4.103025984984E-12
    44     7.674665214562E-12
    45     5.247739770304E-13
    46    -3.153188509826E-12
 Sym=  A
 Ene=       1.4712272071
 Spin= Alpha
 Occup=   0.00000000
     1    -9.085330017561E-02
     2     1.820428119341E+00
     3    -1.023756113933E+00
     4     2.104193252924E-14
     5    -2.564944113178E-15
     6    -1.041700132291E-01
     7     1.716938851417E-13
     8    -7.955273536253E-14
     9    -4.467695789160E+00
    10    -1.865399341283E-01
    11     1.161472442474E-14
    12    -3.849672807528E-15
    13    -2.002387097866E-16
    14     6.537588293983E-16
    15     1.676815017819E-01
    16     6.040034723884E-14
    17    -6.371987976646E-14
    18    -2.383578121396E+00
    19    -7.718313376314E-01
    20     3.055079926385E-14
    21    -2.893923439927E-14
    22     1.735570365191E-14
    23    -2.449466785320E-15
    24    -9.085330017705E-02
    25     1.820428119291E+00
    26    -1.023756102428E+00
    27    -2.078148270221E-14
    28     2.535583188075E-15
    29     1.041700132290E-01
    30    -1.789460161593E-13
    31     8.834630979608E-14
    32     4.467695789161E+00
    33    -1.865399341288E-01
    34     1.195127564882E-14
    35    -2.406837207019E-15
    36    -8.346420948239E-16
    37    -3.623759992721E-16
    38     1.676815018782E-01
    39    -5.701349592371E-14
    40     6.156171299115E-14
    41     2.383578120473E+00
    42    -7.718313376074E-01
    43     1.395486093458E-14
    44     1.602866407371E-15
    45    -1.664346069046E-14
    46     7.180639527449E-16
 Sym=  A
 Ene=       2.0309417116
 Spin= Alpha
 Occup=   0.00000000
     1     2.623599223267E-01
     2    -6.235331523156E+01
     3     6.227499759912E+02
     4     1.016958370077E-10
     5     1.659390692750E-10
     6     2.066235351390E-01
     7     1.232084689605E-09
     8     1.990735414438E-09
     9    -8.448522351110E+00
    10    -2.162894328860E-02
    11     6.168815553972E-11
    12     1.003691074716E-10
    13    -2.875565320451E-13
    14    -1.976649470659E-13
    15     1.441310604869E+00
    16     4.586132638699E-10
    17     7.495663892593E-10
    18     4.920010522995E+01
    19     6.177846766952E-01
    20     1.738011753550E-10
    21     2.851599686503E-10
    22     5.034285449278E-13
    23    -8.129001942657E-13
    24    -2.623599223125E-01
    25     6.235331523155E+01
    26    -6.227499759912E+02
    27    -1.016682119126E-10
    28    -1.659305282244E-10
    29     2.066235351471E-01
    30    -1.231513306609E-09
    31    -1.991494416833E-09
    32    -8.448522351079E+00
    33     2.162894328336E-02
    34     6.190865025202E-11
    35     1.004049195086E-10
    36     3.199715830872E-13
    37     1.122131576767E-13
    38    -1.441310604870E+00
    39    -4.587841871789E-10
    40    -7.493778165468E-10
    41     4.920010522995E+01
    42    -6.177846766987E-01
    43     1.762967788913E-10
    44     2.817427288691E-10
    45    -4.708129217666E-13
    46     7.480959521373E-13
 Sym=  A
 Ene=       2.0537590754
 Spin= Alpha
 Occup=   0.00000000
     1     3.765292810774E-11
     2    -9.155805516764E-09
     3     9.840352498803E-08
     4    -9.866412655131E-01
     5    -4.219386410678E-01
     6     2.953478734760E-11
     7    -1.230044311162E+01
     8    -5.260303245424E+00
     9    -1.236095646063E-09
    10    -2.959470506837E-12
    11    -6.004919385148E-01
    12    -2.568012927954E-01
    13    -1.499057734372E-14
    14     8.257195555126E-15
    15     2.763944869380E-10
    16    -4.739373100006E+00
    17    -2.026800130127E+00
    18     7.783757859991E-09
    19     9.859338371370E-11
    20    -1.765076532250E+00
    21    -7.548376694045E-01
    22     1.874102880415E-14
    23     2.221754792620E-14
    24    -3.759445705122E-11
    25     9.155847252870E-09
    26    -9.840357637803E-08
    27     9.866412655131E-01
    28     4.219386410678E-01
    29     2.958193293565E-11
    30     1.230044311162E+01
    31     5.260303245424E+00
    32    -1.235790052396E-09
    33     2.926162715183E-12
    34    -6.004919385148E-01
    35    -2.568012927954E-01
    36     1.280220522826E-14
    37    -1.291261516784E-14
    38    -2.763793794735E-10
    39     4.739373100006E+00
    40     2.026800130127E+00
    41     7.783752549148E-09
    42    -9.862426800497E-11
    43    -1.765076532250E+00
    44    -7.548376694047E-01
    45    -2.307324455624E-14
    46    -2.207344853114E-14
 Sym=  A
 Ene=       2.0537590754
 Spin= Alpha
 Occup=   0.00000000
     1    -2.635826322413E-11
     2     6.399764775094E-09
     3    -6.810979909698E-08
     4    -4.219386410672E-01
     5     9.866412655125E-01
     6    -2.060498296919E-11
     7    -5.260303245423E+00
     8     1.230044311162E+01
     9     8.640457485685E-10
    10     2.035758614558E-12
    11    -2.568012927951E-01
    12     6.004919385145E-01
    13     1.425075543939E-15
    14    -6.594074222104E-15
    15    -1.854363575125E-10
    16    -2.026800130126E+00
    17     4.739373100009E+00
    18    -5.386583990478E-09
    19    -6.805420396323E-11
    20    -7.548376694045E-01
    21     1.765076532251E+00
    22    -4.917977968652E-14
    23    -5.582005872640E-14
    24     2.638249658088E-11
    25    -6.399712432612E-09
    26     6.810976111872E-08
    27     4.219386410672E-01
    28    -9.866412655125E-01
    29    -2.058149390455E-11
    30     5.260303245423E+00
    31    -1.230044311162E+01
    32     8.642552326020E-10
    33    -2.050330921020E-12
    34    -2.568012927952E-01
    35     6.004919385145E-01
    36    -8.689347450032E-16
    37     8.775641986403E-15
    38     1.854435192731E-10
    39     2.026800130126E+00
    40    -4.739373100009E+00
    41    -5.386505485392E-09
    42     6.802013917564E-11
    43    -7.548376694046E-01
    44     1.765076532251E+00
    45     4.847760220677E-14
    46     5.201929173937E-14
 Sym=  A
 Ene=       3.0588100433
 Spin= Alpha
 Occup=   0.00000000
     1    -1.017393695257E+00
     2    -4.523182947921E-01
     3     2.252721805710E-01
     4     6.987407231642E-14
     5    -4.242772109741E-14
     6     1.043822145196E-01
     7     2.530861765620E-14
     8    -4.817196082980E-14
     9     5.160316601548E+00
    10    -6.202369705469E-02
    11     3.421963587323E-14
    12    -1.231418598378E-14
    13    -3.145029295358E-15
    14    -1.642167976621E-15
    15     5.999767007347E-02
    16    -6.823382200191E-14
    17     2.612308642946E-14
    18     3.069966186071E+00
    19     1.075974503545E+00
    20    -1.106429250944E-14
    21     2.338780924822E-17
    22    -9.702499533914E-16
    23     5.883904381654E-15
    24    -1.017393695258E+00
    25    -4.523182944016E-01
    26     2.252721701489E-01
    27    -6.361498827467E-14
    28     3.557195158468E-14
    29    -1.043822145204E-01
    30    -2.641051826516E-14
    31     5.112633056714E-14
    32    -5.160316601595E+00
    33    -6.202369705552E-02
    34     3.913697711750E-14
    35    -2.383579333642E-14
    36     3.605601652911E-15
    37    -6.813796549511E-16
    38     5.999767000220E-02
    39     6.763040197196E-14
    40    -2.760593339970E-14
    41    -3.069966185239E+00
    42     1.075974503535E+00
    43    -6.923672439884E-15
    44    -3.620379968620E-15
    45     1.908046523511E-15
    46    -3.881513536481E-15
 Sym=  A
 Ene=       3.7859533823
 Spin= Alpha
 Occup=   0.00000000
     1    -1.760253191380E-15
     2     1.964809913165E-12
     3    -7.825918325585E-11
     4     1.588867378690E-13
     5     1.124386592993E-14
     6     1.134101780680E-14
     7     3.685336792433E-14
     8    -5.772337149935E-14
     9     2.082193133138E-13
    10    -1.925297522286E-14
    11     4.153876302427E-15
    12    -4.790155286309E-15
    13     5.608602281429E-01
    14     1.082759192872E-01
    15    -6.208742136057E-13
    16     3.717880623338E-14
    17    -4.037199162960E-14
    18    -6.272710224533E-12
    19    -6.879855464631E-14
    20     2.786544348333E-14
    21    -8.273342195299E-15
    22    -2.031555472906E-01
    23    -3.921984932683E-02
    24     9.185542395463E-15
    25    -1.961564742836E-12
    26     7.825652987632E-11
    27     6.921710306442E-14
    28     1.610176896546E-14
    29     2.370386966772E-14
    30    -2.013893517899E-13
    31     3.887889232358E-14
    32     2.319020074458E-13
    33     1.476785296506E-14
    34     5.416467813142E-14
    35     2.576333878548E-15
    36     5.608602281429E-01
    37     1.082759192871E-01
    38     6.210023598560E-13
    39     1.448318917802E-14
    40     4.606919825085E-14
    41    -6.255118746420E-12
    42     6.415402190167E-14
    43    -8.023677625410E-15
    44    -9.934811616939E-15
    45    -2.031555472906E-01
    46    -3.921984932682E-02
 Sym=  A
 Ene=       3.7859533823
 Spin= Alpha
 Occup=   0.00000000
     1    -2.916474023076E-14
     2     6.451527768928E-12
     3    -3.319724887679E-10
     4    -5.817507540772E-14
     5    -1.491354478027E-13
     6     1.932256109305E-13
     7    -1.777063775499E-13
     8    -2.503691870337E-14
     9     5.944376772201E-13
    10    -6.601201353513E-14
    11    -5.041621893353E-14
    12    -2.499986907772E-16
    13     1.082759192872E-01
    14    -5.608602281429E-01
    15    -2.535506905875E-12
    16     6.094614730810E-15
    17    -2.510390469673E-14
    18    -2.658718873103E-11
    19    -2.931495263819E-13
    20    -9.325203536542E-15
    21    -2.046278950046E-14
    22    -3.921984932683E-02
    23     2.031555472906E-01
    24     2.301569749644E-14
    25    -6.446280318923E-12
    26     3.319740026430E-10
    27     9.888654710411E-14
    28    -6.650250723176E-14
    29     1.876347390163E-13
    30     1.493459603259E-13
    31     1.782647092500E-13
    32     5.841472970165E-13
    33     7.368410628769E-14
    34    -3.607267944313E-14
    35    -5.391082632277E-14
    36     1.082759192871E-01
    37    -5.608602281429E-01
    38     2.534154059578E-12
    39     2.452609048053E-15
    40    -2.254653838208E-14
    41    -2.654964278966E-11
    42     2.894089409979E-13
    43    -1.635786598514E-14
    44     5.756354703757E-15
    45    -3.921984932683E-02
    46     2.031555472906E-01
 Sym=  A
 Ene=       3.8020667911
 Spin= Alpha
 Occup=   0.00000000
     1    -5.924927323974E-15
     2     1.437126378641E-13
     3    -1.140934404404E-11
     4     7.306092984190E-01
     5    -1.834404215033E-01
     6     1.551134965111E-14
     7    -5.263759151747E-01
     8     1.321617723148E-01
     9     3.034223233864E-14
    10     7.285318849278E-15
    11    -1.591070518412E-01
    12     3.994838926502E-02
    13    -8.399450938776E-14
    14     1.293891941638E-14
    15    -1.440878345632E-13
    16     1.643563763037E-01
    17    -4.126638274541E-02
    18    -9.199759650361E-13
    19    -1.091211461163E-14
    20     1.092662753103E-01
    21    -2.743443266106E-02
    22     3.194316929929E-14
    23    -3.565669677752E-15
    24    -8.464389780302E-15
    25    -1.427158561724E-13
    26     1.141294449500E-11
    27     7.306092984187E-01
    28    -1.834404215031E-01
    29     1.178295819426E-15
    30    -5.263759151754E-01
    31     1.321617723151E-01
    32    -1.130936036894E-14
    33     1.066247382907E-14
    34     1.591070518414E-01
    35    -3.994838926509E-02
    36    -8.918752788814E-14
    37     2.323517430599E-14
    38     1.430709382808E-13
    39     1.643563763036E-01
    40    -4.126638274533E-02
    41    -9.118304409029E-13
    42     1.176005502666E-14
    43    -1.092662753102E-01
    44     2.743443266102E-02
    45     3.092461544112E-14
    46    -9.437201992486E-15
 Sym=  A
 Ene=       3.8020667911
 Spin= Alpha
 Occup=   0.00000000
     1    -1.316701431351E-14
     2     7.573786848190E-13
     3    -8.509379125587E-11
     4    -1.834404215031E-01
     5    -7.306092984190E-01
     6     9.852608844300E-14
     7     1.321617723151E-01
     8     5.263759151748E-01
     9     1.480884163538E-14
    10    -1.438813727724E-14
    11     3.994838926510E-02
    12     1.591070518413E-01
    13     1.060934303309E-14
    14     8.307955214112E-14
    15    -6.942244172903E-13
    16    -4.126638274538E-02
    17    -1.643563763037E-01
    18    -6.810265250696E-12
    19    -7.642141604015E-14
    20    -2.743443266103E-02
    21    -1.092662753103E-01
    22    -2.053148464634E-14
    23    -2.169837902239E-14
    24     2.998759102126E-15
    25    -7.595292979157E-13
    26     8.509716508930E-11
    27    -1.834404215033E-01
    28    -7.306092984187E-01
    29     8.852569911299E-14
    30     1.321617723148E-01
    31     5.263759151753E-01
    32    -2.061870851400E-14
    33     2.414224129942E-14
    34    -3.994838926502E-02
    35    -1.591070518414E-01
    36     2.185444497362E-14
    37     7.657083387570E-14
    38     6.935336408486E-13
    39    -4.126638274536E-02
    40    -1.643563763036E-01
    41    -6.819234774947E-12
    42     8.041915658719E-14
    43     2.743443266105E-02
    44     1.092662753102E-01
    45     8.721273836756E-15
    46    -3.570775616143E-14
 Sym=  A
 Ene=       4.4481052380
 Spin= Alpha
 Occup=   0.00000000
     1     2.956656173125E-13
     2     2.088249000230E-09
     3    -4.842156559772E-09
     4    -2.676069449397E+00
     5    -1.555250478735E+00
     6    -4.757624386743E-11
     7    -1.123324041093E+01
     8    -6.528418958177E+00
     9     3.133480765724E-10
    10    -1.839376270808E-11
    11    -1.856688763145E+00
    12    -1.079051251227E+00
    13    -2.408494239034E-13
    14     1.512582545208E-13
    15     5.913201862560E-11
    16    -2.790615909883E+00
    17    -1.621821410798E+00
    18    -3.679039654125E-10
    19     1.912879086683E-11
    20    -1.246932692313E+00
    21    -7.246794985490E-01
    22     1.442044812811E-13
    23    -6.442340295093E-14
    24     6.496554160529E-13
    25    -2.087759619928E-09
    26     4.841718794952E-09
    27     2.676069449397E+00
    28     1.555250478735E+00
    29    -4.733906054742E-11
    30     1.123324041093E+01
    31     6.528418958177E+00
    32     3.182344470953E-10
    33     1.762667752692E-11
    34    -1.856688763145E+00
    35    -1.079051251228E+00
    36     2.525293370778E-13
    37    -1.206113384689E-13
    38    -5.907821853335E-11
    39     2.790615909883E+00
    40     1.621821410798E+00
    41    -3.665669466701E-10
    42    -1.974894269950E-11
    43    -1.246932692313E+00
    44    -7.246794985489E-01
    45    -1.508191271175E-13
    46     5.289977845327E-14
 Sym=  A
 Ene=       4.4481052380
 Spin= Alpha
 Occup=   0.00000000
     1    -3.703804652157E-13
     2     1.284600230429E-09
     3    -4.160009525800E-09
     4     1.555250478734E+00
     5    -2.676069449396E+00
     6    -2.810348680200E-11
     7     6.528418958178E+00
     8    -1.123324041093E+01
     9     1.940195949468E-10
    10    -1.140964073450E-11
    11     1.079051251227E+00
    12    -1.856688763145E+00
    13     7.834211992680E-14
    14     1.455848566547E-13
    15     2.467597917214E-11
    16     1.621821410798E+00
    17    -2.790615909886E+00
    18    -3.206061582028E-10
    19     1.109988824023E-11
    20     7.246794985492E-01
    21    -1.246932692314E+00
    22     1.153916868375E-14
    23    -6.197083811742E-14
    24    -2.067957266077E-14
    25    -1.284778190992E-09
    26     4.160186832082E-09
    27    -1.555250478734E+00
    28     2.676069449396E+00
    29    -2.824719500752E-11
    30    -6.528418958178E+00
    31     1.123324041093E+01
    32     1.921057271170E-10
    33     1.173942509820E-11
    34     1.079051251227E+00
    35    -1.856688763145E+00
    36    -8.740374459375E-14
    37    -1.422185504772E-13
    38    -2.470092781427E-11
    39    -1.621821410798E+00
    40     2.790615909886E+00
    41    -3.210376381372E-10
    42    -1.086838619195E-11
    43     7.246794985491E-01
    44    -1.246932692314E+00
    45    -8.391680018689E-15
    46     6.235568614379E-14
 Sym=  A
 Ene=       4.5016203756
 Spin= Alpha
 Occup=   0.00000000
     1     1.639212017675E-02
     2    -4.323265057896E+01
     3     2.291037624659E+02
     4    -8.959639097966E-11
     5    -1.609881236441E-10
     6     8.050987503754E-01
     7    -3.887893247523E-10
     8    -7.053021847529E-10
     9    -6.357274087405E+00
    10     5.261795841584E-01
    11    -6.374755767494E-11
    12    -1.130221643483E-10
    13    -2.012133218972E-12
    14    -1.426603346796E-12
    15    -9.444877168850E-02
    16    -1.022837402469E-10
    17    -1.830396323698E-10
    18     1.793858685770E+01
    19    -3.501627521722E-01
    20    -4.357625012707E-11
    21    -7.921096519637E-11
    22     1.260837577448E-12
    23     5.907130433362E-13
    24    -1.639212005779E-02
    25     4.323265057903E+01
    26    -2.291037624659E+02
    27     9.023857533220E-11
    28     1.609676924427E-10
    29     8.050987503908E-01
    30     3.885282916667E-10
    31     7.051288447833E-10
    32    -6.357274086753E+00
    33    -5.261795842546E-01
    34    -6.169308340104E-11
    35    -1.135258575550E-10
    36     1.960564540980E-12
    37     1.621298803876E-12
    38     9.444877169458E-02
    39     1.023232940676E-10
    40     1.830837079262E-10
    41     1.793858685789E+01
    42     3.501627520869E-01
    43    -4.413959413481E-11
    44    -7.969983138848E-11
    45    -1.223922671375E-12
    46    -6.863618171037E-13
 Sym=  A
 Ene=       4.5325576994
 Spin= Alpha
 Occup=   0.00000000
     1     1.135589542558E+00
     2     7.119894324673E-01
     3    -5.710615076750E-01
     4     1.164308752933E-12
     5     2.260183456828E-13
     6    -9.414260806540E-02
     7     5.189044292421E-12
     8     8.685119000006E-13
     9    -6.399875209592E+00
    10    -9.170566272900E-01
    11     8.271406630509E-13
    12     1.033330934689E-13
    13     1.682702891163E-14
    14     1.877647398083E-14
    15     6.002189194835E-02
    16     1.367024149196E-12
    17     1.989973603877E-13
    18    -1.942963723967E+00
    19    -8.449443940524E-01
    20     5.902844293208E-13
    21     1.131837986903E-13
    22    -6.508433627892E-15
    23    -1.348032511841E-14
    24     1.135589542561E+00
    25     7.119894279630E-01
    26    -5.710614766157E-01
    27    -1.155655398808E-12
    28    -2.076559535581E-13
    29     9.414260799213E-02
    30    -5.197706034113E-12
    31    -8.761345643653E-13
    32     6.399875210244E+00
    33    -9.170566272239E-01
    34     8.300845668300E-13
    35     1.821869934035E-13
    36    -1.419682077428E-14
    37    -2.140073491281E-14
    38     6.002189200127E-02
    39    -1.364176432495E-12
    40    -1.980421031662E-13
    41     1.942963721522E+00
    42    -8.449443940875E-01
    43     5.829787680626E-13
    44     8.137610110364E-14
    45     4.815679513232E-15
    46     1.319639462566E-14
 Sym=  A
 Ene=       4.8331763341
 Spin= Alpha
 Occup=   0.00000000
     1     1.867104787519E-13
     2    -9.017966457499E-12
     3     4.383951311192E-10
     4    -1.592726837161E-13
     5     8.905830680087E-14
     6    -1.491569291631E-12
     7    -2.699110517574E-13
     8     1.153739196595E-12
     9     2.966496088189E-14
    10     3.818554035475E-12
    11     3.851793552434E-13
    12     4.649262880042E-13
    13     9.356768109967E-01
    14     1.916458784212E+00
    15     2.877238833893E-12
    16    -3.464027201724E-14
    17     3.067364913726E-13
    18     3.498447085448E-11
    19    -1.747545289615E-12
    20    -2.618288794713E-13
    21    -4.158438713697E-14
    22    -5.335742950100E-01
    23    -1.092870030211E+00
    24    -2.133491543350E-13
    25     8.986151286805E-12
    26    -4.383780305996E-10
    27    -1.019842553090E-13
    28    -2.819638274240E-13
    29    -1.488770465093E-12
    30     4.239005660205E-13
    31    -1.037719841101E-12
    32    -1.538546044010E-13
    33    -3.798692268137E-12
    34    -4.787797502216E-13
    35    -1.649776471749E-13
    36    -9.356768109967E-01
    37    -1.916458784212E+00
    38    -2.877816350324E-12
    39     6.376325776503E-15
    40    -3.287943055260E-13
    41     3.486424153181E-11
    42     1.778391796954E-12
    43     1.945808656924E-13
    44     3.014778926929E-13
    45     5.335742950100E-01
    46     1.092870030211E+00
 Sym=  A
 Ene=       4.8331763341
 Spin= Alpha
 Occup=   0.00000000
     1     1.111924191205E-13
     2    -4.346933247328E-12
     3     3.549169523445E-10
     4    -3.218478891321E-13
     5    -6.891385765489E-14
     6    -9.094977061417E-13
     7    -1.785013243329E-12
     8    -1.080499757304E-12
     9     2.334917312009E-13
    10     2.149940833469E-12
    11    -3.304391023850E-13
    12    -4.793374161515E-13
    13     1.916458784212E+00
    14    -9.356768109967E-01
    15     2.588285699409E-12
    16    -4.130791481849E-13
    17    -3.556722692413E-13
    18     2.841767474047E-11
    19    -8.758564660741E-13
    20    -1.628924981947E-13
    21     7.015541524503E-14
    22    -1.092870030211E+00
    23     5.335742950100E-01
    24    -1.369283446463E-13
    25     4.329224694541E-12
    26    -3.549116172005E-10
    27     3.610479523783E-13
    28     2.751178407563E-13
    29    -9.279665386633E-13
    30     1.762922044155E-12
    31     9.555026777348E-13
    32     1.156688328913E-13
    33    -2.136089310149E-12
    34    -1.855345933248E-13
    35     2.100392604748E-13
    36    -1.916458784212E+00
    37     9.356768109967E-01
    38    -2.585699269788E-12
    39     4.156904461930E-13
    40     3.783184816555E-13
    41     2.829125609271E-11
    42     9.010097521297E-13
    43    -2.399268263747E-13
    44    -3.246020415708E-13
    45     1.092870030211E+00
    46    -5.335742950100E-01
 Sym=  A
 Ene=       4.8578722090
 Spin= Alpha
 Occup=   0.00000000
     1    -1.323001981160E-13
     2    -3.819022702643E-12
     3    -2.274252064153E-10
     4     4.598684477713E-01
     5     1.928199519419E-01
     6     1.127938721622E-12
     7    -2.824100775102E-01
     8    -1.184127718199E-01
     9    -1.328022425800E-12
    10    -2.418863286892E-12
    11    -1.501729481867E+00
    12    -6.296657401186E-01
    13     6.172264156703E-14
    14     7.324091706581E-13
    15    -1.793537979607E-12
    16     5.343499836207E-02
    17     2.240495921433E-02
    18    -1.817819458945E-11
    19     1.118628813118E-12
    20     8.558931075368E-01
    21     3.588706045444E-01
    22    -2.474701192706E-14
    23    -4.244431139017E-13
    24     1.310011900472E-13
    25     3.799863512277E-12
    26     2.274382647152E-10
    27     4.598684477714E-01
    28     1.928199519418E-01
    29     1.151226234974E-12
    30    -2.824100775093E-01
    31    -1.184127718207E-01
    32    -1.411622338334E-12
    33     2.424551381480E-12
    34     1.501729481867E+00
    35     6.296657401187E-01
    36    -6.243139577775E-14
    37    -7.315716548825E-13
    38     1.790383013995E-12
    39     5.343499836242E-02
    40     2.240495921409E-02
    41    -1.819496795967E-11
    42    -1.108137590941E-12
    43    -8.558931075369E-01
    44    -3.588706045443E-01
    45     2.508441870458E-14
    46     4.233794291130E-13
 Sym=  A
 Ene=       4.8578722090
 Spin= Alpha
 Occup=   0.00000000
     1    -7.138866562201E-14
     2    -1.737616087290E-12
     3    -1.334762898648E-10
     4     1.928199519419E-01
     5    -4.598684477713E-01
     6     7.924669508923E-13
     7    -1.184127718195E-01
     8     2.824100775101E-01
     9    -9.599651896493E-13
    10    -1.737922313716E-12
    11    -6.296657401186E-01
    12     1.501729481867E+00
    13     2.718471975776E-13
    14    -3.122553991799E-13
    15    -1.023847015597E-12
    16     2.240495921443E-02
    17    -5.343499836217E-02
    18    -1.073550198687E-11
    19     8.013915597804E-13
    20     3.588706045445E-01
    21    -8.558931075368E-01
    22    -1.692987652446E-13
    23     1.900810436231E-13
    24     1.018845048221E-13
    25     1.796795181988E-12
    26     1.334445361523E-10
    27     1.928199519417E-01
    28    -4.598684477714E-01
    29     7.562014767532E-13
    30    -1.184127718211E-01
    31     2.824100775094E-01
    32    -6.499949050339E-13
    33     1.715753363227E-12
    34     6.296657401188E-01
    35    -1.501729481867E+00
    36    -2.716916857921E-13
    37     3.164354707987E-13
    38     1.025516774853E-12
    39     2.240495921399E-02
    40    -5.343499836232E-02
    41    -1.056977927026E-11
    42    -8.521809709249E-13
    43    -3.588706045443E-01
    44     8.558931075369E-01
    45     1.692956583698E-13
    46    -1.912471231517E-13
 Sym=  A
 Ene=       5.0399062531
 Spin= Alpha
 Occup=   0.00000000
     1     8.402797165142E-02
     2     3.367542133400E+01
     3    -3.094274574273E+02
     4     1.288458771398E-11
     5     1.427063529848E-11
     6    -1.128071463002E+00
     7     6.784420342678E-11
     8     1.034093881154E-10
     9     5.198405434564E+00
    10     1.467296021548E+00
    11     6.125782905449E-12
    12     1.343046877449E-11
    13    -4.669438429103E-12
    14    -3.265772320344E-12
    15    -1.361019541311E+00
    16     2.486793798623E-11
    17     3.471829875970E-11
    18    -2.456364785188E+01
    19    -9.350200316363E-01
    20     1.065176156288E-11
    21     1.195893506089E-11
    22     2.495956400153E-12
    23     2.131788215201E-12
    24    -8.402797164789E-02
    25    -3.367542133399E+01
    26     3.094274574273E+02
    27    -1.107245046560E-11
    28    -1.477516122375E-11
    29    -1.128071463011E+00
    30    -6.913191690955E-11
    31    -1.028638882849E-10
    32     5.198405434613E+00
    33    -1.467296021551E+00
    34     1.205256743866E-11
    35     1.208211036560E-11
    36     4.727197981392E-12
    37     3.103899661695E-12
    38     1.361019541312E+00
    39    -2.460849496636E-11
    40    -3.483515303244E-11
    41    -2.456364785186E+01
    42     9.350200316289E-01
    43     6.502342704216E-12
    44     1.372880204487E-11
    45    -2.535443713362E-12
    46    -2.038810948993E-12
 Sym=  A
 Ene=       8.7642287512
 Spin= Alpha
 Occup=   0.00000000
     1     6.822255590230E-13
     2     2.598528121723E-10
     3    -5.789741844668E-09
     4     7.526067509981E+00
     5     4.531968192042E+00
     6    -1.712740855552E-12
     7     7.779052077891E+00
     8     4.684307778861E+00
     9     3.573387666149E-11
    10     2.040880219325E-12
    11     2.724661779829E+00
    12     1.640708179123E+00
    13    -3.991077530816E-14
    14    -1.554419787007E-15
    15    -4.096798630935E-11
    16     1.576694546438E+00
    17     9.494373420847E-01
    18    -4.618748564585E-10
    19    -4.798323874284E-12
    20     7.628692389746E-01
    21     4.593765762976E-01
    22     3.703957358772E-14
    23    -2.197168057251E-14
    24    -1.694670907420E-12
    25    -2.597673325907E-10
    26     5.789830317939E-09
    27    -7.526067509981E+00
    28    -4.531968192042E+00
    29    -2.898462407253E-12
    30    -7.779052077891E+00
    31    -4.684307778861E+00
    32     3.317758493499E-11
    33    -1.413369069078E-12
    34     2.724661779829E+00
    35     1.640708179123E+00
    36     3.995267967414E-14
    37    -8.245245908131E-15
    38     4.097814592109E-11
    39    -1.576694546438E+00
    40    -9.494373420847E-01
    41    -4.628052358748E-10
    42     5.157457824112E-12
    43     7.628692389745E-01
    44     4.593765762976E-01
    45    -3.699743813131E-14
    46     2.261103985100E-14
 Sym=  A
 Ene=       8.7642287512
 Spin= Alpha
 Occup=   0.00000000
     1     1.711113454737E-12
     2     2.247576366167E-10
     3    -4.616038571356E-09
     4    -4.531968192043E+00
     5     7.526067509983E+00
     6    -2.909339485009E-12
     7    -4.684307778866E+00
     8     7.779052077899E+00
     9     2.842025599176E-11
    10     1.040430731276E-12
    11    -1.640708179124E+00
    12     2.724661779830E+00
    13     1.842396366229E-14
    14     4.166483525260E-14
    15    -3.089991706936E-11
    16    -9.494373420863E-01
    17     1.576694546441E+00
    18    -3.687747718305E-10
    19    -4.119082163454E-12
    20    -4.593765762982E-01
    21     7.628692389757E-01
    22    -8.322823295105E-14
    23     1.064619811061E-15
    24    -3.546935647429E-13
    25    -2.249476303022E-10
    26     4.615941401154E-09
    27     4.531968192043E+00
    28    -7.526067509983E+00
    29    -1.310785411906E-12
    30     4.684307778866E+00
    31    -7.779052077899E+00
    32     3.169937120962E-11
    33    -1.889836645692E-12
    34    -1.640708179124E+00
    35     2.724661779830E+00
    36    -1.790628431390E-14
    37    -3.762438979647E-14
    38     3.088730655046E-11
    39     9.494373420863E-01
    40    -1.576694546441E+00
    41    -3.679196904165E-10
    42     3.687279883317E-12
    43    -4.593765762982E-01
    44     7.628692389755E-01
    45     8.370395873785E-14
    46    -2.684566169472E-15
 Sym=  A
 Ene=       9.9893684193
 Spin= Alpha
 Occup=   0.00000000
     1    -4.209696676149E+00
     2     4.071525286424E-01
     3     3.580454873328E-01
     4    -2.119544564572E-12
     5     8.232843021069E-13
     6     4.778326845462E+00
     7    -3.029490613674E-12
     8     8.981671736560E-13
     9     1.080101642018E+01
    10     2.598909701302E+00
    11    -8.268203269786E-13
    12     2.814428980266E-13
    13    -3.811628654258E-15
    14     7.515266061732E-15
    15     4.415252646559E-02
    16    -8.054017244063E-13
    17     2.525208957824E-13
    18     3.359937947415E+00
    19     1.491203469363E+00
    20    -3.354634350027E-13
    21     1.184515326429E-13
    22     1.813142796864E-15
    23    -3.567187269124E-15
    24    -4.209696676144E+00
    25     4.071525293478E-01
    26     3.580454710753E-01
    27     2.115741786650E-12
    28    -8.064116002529E-13
    29    -4.778326845457E+00
    30     3.037584038337E-12
    31    -9.143482104549E-13
    32    -1.080101642028E+01
    33     2.598909701307E+00
    34    -8.236216417218E-13
    35     3.184340339010E-13
    36     6.993865452139E-15
    37    -5.126373607658E-15
    38     4.415252634918E-02
    39     8.034241307577E-13
    40    -2.498016014333E-13
    41    -3.359937946116E+00
    42     1.491203469350E+00
    43    -3.309563208021E-13
    44     6.952426296269E-14
    45     3.913589062148E-17
    46     4.987000493181E-15
 Sym=  A
 Ene=      16.5613949492
 Spin= Alpha
 Occup=   0.00000000
     1    -7.061595739278E+00
     2     1.574996694001E+01
     3    -1.032520098696E+02
     4     2.519349769168E-12
     5     6.110144822702E-12
     6    -2.395603394492E+00
     7     8.269367715622E-12
     8     1.524917870429E-11
     9     2.262892191004E+00
    10    -2.901607332523E-01
    11     1.169467891654E-12
    12     2.738185030052E-12
    13    -8.492546164988E-14
    14    -7.746340429733E-14
    15    -8.522141963696E-02
    16     4.238374601409E-12
    17     6.181942348162E-12
    18    -8.117128441166E+00
    19     7.888703427066E-02
    20     1.299406520516E-12
    21     1.825047339962E-12
    22    -9.874575768800E-15
    23     1.296582513033E-13
    24     7.061595739284E+00
    25    -1.574996694001E+01
    26     1.032520098696E+02
    27    -2.481851677986E-12
    28    -6.135783479895E-12
    29    -2.395603394486E+00
    30    -8.342017602659E-12
    31    -1.516823215058E-11
    32     2.262892191021E+00
    33     2.901607332488E-01
    34     1.282000913022E-12
    35     2.695957577083E-12
    36     9.028295201222E-14
    37     5.971826615139E-14
    38     8.522141963694E-02
    39    -4.220740219985E-12
    40    -6.197476130393E-12
    41    -8.117128441160E+00
    42    -7.888703427317E-02
    43     1.019397696111E-12
    44     2.135268004674E-12
    45     9.258551440910E-16
    46    -1.123299363618E-13
