[Molden Format]
[Title]
 output-h2o-dft
[Atoms] (AU)
 O        1     8       0.000000000000       0.000000000000       0.000000000000
 H        2     1       0.000000000000       1.499219890150      -1.159365874719
 H        3     1       0.000000000000      -1.499219890150      -1.159365874719
[GTO]
  1 0
 s   6  1.00
      5.4846717000E+03      1.8310998055E-03
      8.2523495000E+02      1.3950098518E-02
      1.8804696000E+02      6.8445092731E-02
      5.2964500000E+01      2.3271427528E-01
      1.6897570000E+01      4.7019295006E-01
      5.7996353000E+00      3.5852086192E-01
 s   3  1.00
      1.5539616000E+01     -1.1077750383E-01
      3.5999336000E+00     -1.4802630511E-01
      1.0137618000E+00      1.1307670390E+00
 p   3  1.00
      1.5539616000E+01      7.0874299543E-02
      3.5999336000E+00      3.3975279781E-01
      1.0137618000E+00      7.2715859531E-01
 s   1  1.00
      2.7000580000E-01      1.0000000000E+00
 p   1  1.00
      2.7000580000E-01      1.0000000000E+00
 d   1  1.00
      8.0000000000E-01      1.0000000000E+00

  2 0
 s   3  1.00
      1.8731137000E+01      3.3494599523E-02
      2.8253937000E+00      2.3472694666E-01
      6.4012170000E-01      8.1375731841E-01
 s   1  1.00
      1.6127780000E-01      1.0000000000E+00

  3 0
 s   3  1.00
      1.8731137000E+01      3.3494599523E-02
      2.8253937000E+00      2.3472694666E-01
      6.4012170000E-01      8.1375731841E-01
 s   1  1.00
      1.6127780000E-01      1.0000000000E+00

[5D]
[MO]
 Sym=  A
 Ene=     -18.7518895583
 Spin= Alpha
 Occup=   2.00000000
     1     9.949292144059E-01
     2     2.889065232759E-02
     3    -1.968888729784E-17
     4     7.680554701612E-17
     5    -1.651559011214E-03
     6    -1.385533739173E-02
     7     1.143659128077E-17
     8    -2.753257878423E-16
     9     2.706549647242E-03
    10    -3.116229556015E-05
    11     4.149486202921E-20
    12     2.045806521872E-16
    13     2.864737168937E-04
    14    -1.181291049491E-18
    15     3.651508503397E-04
    16     3.028524164872E-03
    17     3.651508503391E-04
    18     3.028524164872E-03
 Sym=  A
 Ene=      -0.8909624951
 Spin= Alpha
 Occup=   2.00000000
     1     2.118467574554E-01
     2    -4.638315691410E-01
     3    -1.606435668175E-17
     4     5.959727960674E-15
     5     1.286543671312E-01
     6    -4.767033614854E-01
     7    -3.662125428845E-18
     8    -1.022786562751E-14
     9     6.944955329846E-02
    10    -7.960219356394E-03
    11    -3.335228735947E-18
    12     1.466300764567E-15
    13     1.847581034553E-02
    14    -9.188213515335E-18
    15    -1.334156848682E-01
    16    -3.158521244845E-03
    17    -1.334156848682E-01
    18    -3.158521244878E-03
 Sym=  A
 Ene=      -0.4507041738
 Spin= Alpha
 Occup=   2.00000000
     1    -1.937448143015E-15
     2    -5.975426325232E-16
     3    -2.579824786068E-16
     4     5.128279371325E-01
     5    -8.726467536490E-15
     6     1.330762118577E-14
     7    -1.760960058571E-16
     8     2.693911456694E-01
     9    -1.024040851795E-14
    10     9.831314497603E-16
    11     1.042033922916E-16
    12    -3.805597842572E-02
    13    -7.024305517942E-16
    14    -1.197301800071E-16
    15     2.372777471302E-01
    16     1.502558456097E-01
    17    -2.372777471302E-01
    18    -1.502558456097E-01
 Sym=  A
 Ene=      -0.3075270534
 Spin= Alpha
 Occup=   2.00000000
     1     8.546180107341E-02
     2    -1.907041643217E-01
     3     6.736168764406E-17
     4    -5.258681875456E-15
     5    -5.452559397848E-01
     6    -3.540834323281E-01
     7    -4.272756366814E-17
     8    -1.977744746143E-14
     9    -3.753938202833E-01
    10     3.371015576782E-02
    11     1.039894547277E-17
    12     8.354728311346E-16
    13     1.738963548338E-03
    14     2.794914095942E-17
    15     1.461603089526E-01
    16     1.152916967027E-01
    17     1.461603089526E-01
    18     1.152916967027E-01
 Sym=  A
 Ene=      -0.2238171670
 Spin= Alpha
 Occup=   2.00000000
     1    -1.690285869268E-17
     2    -1.254148061961E-16
     3     6.422481938985E-01
     4     2.292921852952E-16
     5     7.184776185767E-17
     6     5.396734721786E-16
     7     5.086126932879E-01
     8    -3.730831471536E-17
     9    -1.933834106788E-16
    10    -9.993125488080E-19
    11    -3.437077547648E-02
    12    -1.814003345627E-17
    13    -6.046404868113E-17
    14    -1.854936445254E-15
    15    -1.628354150058E-16
    16    -4.686241684955E-17
    17     9.367607029400E-17
    18    -5.278422174834E-16
 Sym=  A
 Ene=       0.0330729898
 Spin= Alpha
 Occup=   0.00000000
     1    -8.977040166848E-02
     2     1.676638510738E-01
     3     6.782376986980E-17
     4     2.460785941480E-14
     5    -3.119282408465E-01
     6     1.009378742693E+00
     7     3.023251077814E-17
     8     6.864653590021E-14
     9    -4.536385591539E-01
    10     1.678920510230E-02
    11     3.380968766216E-18
    12     7.543778902265E-16
    13    -4.936513223251E-03
    14    -2.936475010351E-17
    15    -1.239290880711E-01
    16    -8.889994370745E-01
    17    -1.239290880711E-01
    18    -8.889994370742E-01
 Sym=  A
 Ene=       0.1113555350
 Spin= Alpha
 Occup=   0.00000000
     1     1.009298311778E-14
     2     2.230557199375E-15
     3     3.961841624576E-17
     4     4.459808413071E-01
     5     3.024702148508E-14
     6    -1.319987307094E-13
     7    -4.928193877473E-18
     8     7.232352828908E-01
     9     2.975457430790E-14
    10    -6.962893497209E-16
    11     6.159357998798E-17
    12    -1.422016762251E-02
    13     1.803833753193E-15
    14    -4.701745827181E-17
    15    -1.371576172002E-01
    16    -1.171227021766E+00
    17     1.371576172002E-01
    18     1.171227021766E+00
 Sym=  A
 Ene=       0.7173377135
 Spin= Alpha
 Occup=   0.00000000
     1    -1.616026288651E-14
     2     7.998565952403E-14
     3    -2.868469834776E-15
     4    -2.154902572131E-01
     5    -8.798160629363E-14
     6    -9.032900118494E-14
     7     3.020031482932E-15
     8    -2.445027800258E-01
     9    -6.531972633852E-14
    10     6.908243559793E-15
    11     4.017265054568E-16
    12    -2.000164837109E-01
    13     4.966522155076E-14
    14     2.664335821495E-16
    15     8.309848335167E-01
    16    -7.878034208666E-01
    17    -8.309848335173E-01
    18     7.878034208671E-01
 Sym=  A
 Ene=       0.7710080378
 Spin= Alpha
 Occup=   0.00000000
     1     3.823433067453E-02
     2    -2.035283484614E-01
     3    -2.514426398439E-15
     4    -8.058846891160E-14
     5     5.884325625567E-01
     6     3.083723994643E-01
     7     2.812448952861E-15
     8    -5.051739184526E-14
     9    -2.778691148398E-01
    10    -8.381778049649E-03
    11    -6.247753265868E-17
    12    -8.053632909689E-14
    13    -1.585881343780E-01
    14     1.375846638913E-17
    15     7.671747833940E-01
    16    -6.368430019664E-01
    17     7.671747833935E-01
    18    -6.368430019659E-01
 Sym=  A
 Ene=       0.8442008191
 Spin= Alpha
 Occup=   0.00000000
     1     2.508102370158E-16
     2    -1.070330025101E-17
     3     9.610081271834E-01
     4     2.728599655447E-15
     5    -1.754192195856E-15
     6    -1.768570979066E-15
     7    -1.037343895654E+00
     8    -7.192074935382E-15
     9     4.921286269723E-15
    10    -3.105519499809E-16
    11     1.757207426264E-02
    12    -8.374853009583E-16
    13    -9.748120978466E-16
    14    -9.494174303727E-16
    15     7.655309790849E-15
    16    -9.741663813579E-16
    17     1.615117122351E-15
    18    -2.219408861416E-15
 Sym=  A
 Ene=       0.8873836221
 Spin= Alpha
 Occup=   0.00000000
     1     6.446391423522E-02
     2    -4.443708537180E-01
     3    -4.138852593632E-15
     4     3.713156165801E-14
     5    -7.522857175615E-01
     6     1.736509853821E-01
     7     4.353480424234E-15
     8    -1.128667735871E-13
     9     1.124467660096E+00
    10    -3.228112430480E-02
    11    -7.466074297871E-17
    12    -3.630766537828E-14
    13    -1.144726416987E-01
    14    -5.997611379949E-17
    15     4.214366207118E-01
    16    -7.295191378514E-02
    17     4.214366207116E-01
    18    -7.295191378502E-02
 Sym=  A
 Ene=       1.0066177579
 Spin= Alpha
 Occup=   0.00000000
     1    -3.539956201361E-15
     2    -2.412387679496E-14
     3    -4.089810480513E-15
     4     9.642410607218E-01
     5     5.883453446136E-14
     6     8.871643123809E-14
     7     4.340822752985E-15
     8    -1.635118866773E+00
     9    -9.816009901910E-14
    10     3.240296194235E-15
    11    -7.937314800976E-16
    12    -5.117812639642E-02
    13     9.934500110809E-15
    14     8.676458428745E-16
    15     4.469112992148E-02
    16     8.401154668320E-01
    17    -4.469112992154E-02
    18    -8.401154668321E-01
 Sym=  A
 Ene=       1.3203317813
 Spin= Alpha
 Occup=   0.00000000
     1    -6.512929006392E-02
     2     1.570616197108E+00
     3    -2.458537812686E-15
     4     2.384992442066E-14
     5    -2.139195714647E-01
     6    -2.416187073136E+00
     7     1.928342239865E-15
     8    -4.988340768922E-14
     9     6.970313116387E-01
    10    -5.442903593562E-02
    11     1.133559879744E-17
    12    -2.713043141766E-14
    13    -2.707690469883E-01
    14     5.873128722801E-17
    15     2.302430803165E-01
    16     6.011866303977E-01
    17     2.302430803165E-01
    18     6.011866303976E-01
 Sym=  A
 Ene=       1.6699191311
 Spin= Alpha
 Occup=   0.00000000
     1    -1.395908691668E-03
     2     1.313536320874E-01
     3    -8.416707637359E-18
     4    -1.125134083403E-15
     5    -1.555037257064E-02
     6    -2.435717475514E-01
     7     8.794940182157E-18
     8     1.812976219384E-15
     9     1.489793979308E-01
    10     9.862515744999E-01
    11     3.413657393060E-15
    12    -7.705911335939E-15
    13     1.211576294762E-01
    14     3.068381351571E-14
    15     8.407718317876E-02
    16     4.517684510767E-02
    17     8.407718317876E-02
    18     4.517684510767E-02
 Sym=  A
 Ene=       1.6836756157
 Spin= Alpha
 Occup=   0.00000000
     1     3.273984147564E-17
     2    -4.051876875530E-15
     3     2.114120865955E-15
     4    -8.397040702272E-16
     5     3.458597607717E-16
     6     7.422913621251E-15
     7     2.485505930553E-16
     8     1.382160422483E-15
     9    -4.423680840472E-15
    10    -3.059164241733E-14
    11     6.845336924288E-15
    12     1.527463714424E-15
    13    -3.832551783220E-15
    14     1.000000000000E+00
    15    -2.378742929636E-15
    16    -2.005947207946E-15
    17    -2.650878218159E-15
    18    -7.431618386090E-16
 Sym=  A
 Ene=       1.7176132653
 Spin= Alpha
 Occup=   0.00000000
     1     5.473609298636E-19
     2     5.377412056249E-16
     3    -5.191531760250E-03
     4    -1.075516589822E-15
     5    -5.316006420138E-17
     6    -9.401067560039E-16
     7    -3.573633243701E-02
     8     1.981313198214E-15
     9     4.856117820962E-16
    10     3.304921200112E-15
    11    -9.992546582325E-01
    12    -9.169447889612E-16
    13     3.985135264174E-16
    14     6.544815625943E-15
    15    -1.343055712178E-16
    16    -5.979465684601E-16
    17     6.701988963349E-16
    18     9.661786352419E-16
 Sym=  A
 Ene=       2.1735966221
 Spin= Alpha
 Occup=   0.00000000
     1    -1.102206982116E-02
     2    -5.808486331645E-01
     3     1.160053399642E-15
     4     8.671326956366E-15
     5     8.172925302683E-02
     6     1.226439816804E+00
     7    -7.458667098208E-16
     8    -7.860303797567E-14
     9    -6.714011346258E-01
    10     1.574816683766E-01
    11     1.130443655278E-17
    12     1.447017543586E-13
    13    -1.054245169520E+00
    14    -2.840638362548E-17
    15    -7.585026751590E-01
    16    -9.424903403388E-02
    17    -7.585026751592E-01
    18    -9.424903403388E-02
 Sym=  A
 Ene=       2.4405367970
 Spin= Alpha
 Occup=   0.00000000
     1     1.119902386254E-15
     2     8.990243059661E-14
     3    -1.806779718360E-16
     4     7.376647659254E-02
     5    -9.378080522525E-15
     6    -1.858515571335E-13
     7    -7.801610320044E-17
     8    -7.950788270138E-01
     9     9.627051192278E-14
    10    -1.356859378838E-14
    11    -1.139529558504E-15
    12     1.232332135767E+00
    13     1.135954087541E-13
    14    -1.282510324694E-15
    15     8.647442553007E-01
    16    -7.086455131143E-02
    17    -8.647442553005E-01
    18     7.086455131146E-02
