[Molden Format]
[Title]
 output-h2o-dimer-opt
[Atoms] (AU)
 O        1     8       0.000000000000       0.013500084340       0.005329738891
 H        2     1      -0.000000000000      -0.002175911350       1.805925884986
 H        3     1      -0.000000000000       1.743566977181      -0.451687032164
 O        4     8      -0.000000000000       0.001308811177       5.593787145382
 H        5     1      -0.000000000000       1.426654025488       6.677251061180
 H        6     1       0.000000000000      -1.427298417059       6.676390136953
[GTO]
  1 0
 s   6  1.00
      5.4846717000E+03      1.8310998055E-03
      8.2523495000E+02      1.3950098518E-02
      1.8804696000E+02      6.8445092731E-02
      5.2964500000E+01      2.3271427528E-01
      1.6897570000E+01      4.7019295006E-01
      5.7996353000E+00      3.5852086192E-01
 s   3  1.00
      1.5539616000E+01     -1.1077750383E-01
      3.5999336000E+00     -1.4802630511E-01
      1.0137618000E+00      1.1307670390E+00
 p   3  1.00
      1.5539616000E+01      7.0874299543E-02
      3.5999336000E+00      3.3975279781E-01
      1.0137618000E+00      7.2715859531E-01
 s   1  1.00
      2.7000580000E-01      1.0000000000E+00
 p   1  1.00
      2.7000580000E-01      1.0000000000E+00
 d   1  1.00
      8.0000000000E-01      1.0000000000E+00

  2 0
 s   3  1.00
      1.8731137000E+01      3.3494599523E-02
      2.8253937000E+00      2.3472694666E-01
      6.4012170000E-01      8.1375731841E-01
 s   1  1.00
      1.6127780000E-01      1.0000000000E+00

  3 0
 s   3  1.00
      1.8731137000E+01      3.3494599523E-02
      2.8253937000E+00      2.3472694666E-01
      6.4012170000E-01      8.1375731841E-01
 s   1  1.00
      1.6127780000E-01      1.0000000000E+00

  4 0
 s   6  1.00
      5.4846717000E+03      1.8310998055E-03
      8.2523495000E+02      1.3950098518E-02
      1.8804696000E+02      6.8445092731E-02
      5.2964500000E+01      2.3271427528E-01
      1.6897570000E+01      4.7019295006E-01
      5.7996353000E+00      3.5852086192E-01
 s   3  1.00
      1.5539616000E+01     -1.1077750383E-01
      3.5999336000E+00     -1.4802630511E-01
      1.0137618000E+00      1.1307670390E+00
 p   3  1.00
      1.5539616000E+01      7.0874299543E-02
      3.5999336000E+00      3.3975279781E-01
      1.0137618000E+00      7.2715859531E-01
 s   1  1.00
      2.7000580000E-01      1.0000000000E+00
 p   1  1.00
      2.7000580000E-01      1.0000000000E+00
 d   1  1.00
      8.0000000000E-01      1.0000000000E+00

  5 0
 s   3  1.00
      1.8731137000E+01      3.3494599523E-02
      2.8253937000E+00      2.3472694666E-01
      6.4012170000E-01      8.1375731841E-01
 s   1  1.00
      1.6127780000E-01      1.0000000000E+00

  6 0
 s   3  1.00
      1.8731137000E+01      3.3494599523E-02
      2.8253937000E+00      2.3472694666E-01
      6.4012170000E-01      8.1375731841E-01
 s   1  1.00
      1.6127780000E-01      1.0000000000E+00

[5D]
[MO]
 Sym=  A
 Ene=     -20.5815873199
 Spin= Alpha
 Occup=   2.00000000
     1     8.554781911077E-05
     2     2.271535098705E-04
     3     2.723710415408E-16
     4    -2.653957905461E-05
     5     7.126696650688E-05
     6    -7.323979595190E-04
     7    -1.695478720706E-16
     8     9.124759029202E-05
     9    -4.845594598242E-04
    10    -7.264581372263E-05
    11    -6.779307095537E-17
    12     3.229915700310E-06
    13     4.702805996015E-06
    14    -8.990079678702E-17
    15     3.554077493257E-05
    16     1.019345576798E-03
    17     5.439300913004E-05
    18    -2.278193044516E-04
    19     9.957739080587E-01
    20     2.213433270405E-02
    21    -6.808763320918E-17
    22     6.703068299479E-06
    23     1.461143534872E-03
    24    -8.261527218374E-03
    25     3.567899015683E-17
    26     4.972017243637E-07
    27    -1.395668107653E-03
    28    -7.080328729171E-05
    29     2.218497310041E-17
    30     7.623317678813E-07
    31     2.447397764801E-04
    32     8.349282326253E-18
    33     1.976863425247E-04
    34     1.867481054684E-03
    35     2.049611980516E-04
    36     1.856280533689E-03
 Sym=  A
 Ene=     -20.5145227318
 Spin= Alpha
 Occup=   2.00000000
     1    -9.957905440358E-01
     2    -2.233368849636E-02
     3    -9.342601392460E-17
     4    -1.253653467804E-03
     5    -1.041174232414E-03
     6     9.132920964532E-03
     7    -4.644312652980E-17
     8     1.307795890695E-03
     9     1.699118660162E-03
    10     2.086337334045E-04
    11     3.630062943072E-19
    12    -1.204486197236E-04
    13    -2.029995466232E-04
    14    -6.445847651296E-19
    15    -2.533590750500E-04
    16    -3.335356357205E-03
    17    -3.055985957309E-04
    18    -1.686138763313E-03
    19     6.650294056819E-05
    20    -2.487131906248E-04
    21     9.551006471438E-18
    22     2.442974025080E-06
    23     2.032216592087E-04
    24     4.171803558490E-04
    25    -2.333604244696E-17
    26    -9.100196231720E-06
    27    -9.283833082058E-04
    28     1.502464893720E-04
    29     8.102426899616E-20
    30    -1.982455863676E-06
    31     3.600795662158E-05
    32     7.123098194638E-20
    33     4.963123136790E-05
    34     2.393348404147E-04
    35     4.681801162468E-05
    36     2.233106815507E-04
 Sym=  A
 Ene=      -1.3748436815
 Spin= Alpha
 Occup=   2.00000000
     1    -1.132440278980E-02
     2     2.478999981673E-02
     3    -8.000549568620E-17
     4     3.448413512462E-03
     5     5.157455902724E-03
     6     2.260713644592E-02
     7    -1.484230841516E-17
     8     2.150907087783E-03
     9     2.155936507197E-03
    10     6.024241186114E-04
    11     1.245913040143E-17
    12    -5.667478507828E-05
    13    -7.134515530709E-04
    14    -1.736222462251E-17
    15     1.200300751714E-02
    16     5.080908950967E-03
    17     6.388259729181E-03
    18    -3.845892820507E-04
    19    -2.140432873446E-01
    20     4.684854476200E-01
    21    -9.269860449282E-17
    22     5.811192546289E-04
    23     9.016182623992E-02
    24     4.922002290484E-01
    25     4.742145698914E-17
    26     8.413270825687E-04
    27     5.212555359610E-02
    28     6.330895771070E-03
    29     1.210825460014E-18
    30    -2.279880693832E-05
    31    -1.663288530332E-02
    32     6.908623803106E-18
    33     1.317893667041E-01
    34    -1.018335094075E-02
    35     1.310489887694E-01
    36    -1.029691648461E-02
 Sym=  A
 Ene=      -1.3087687609
 Spin= Alpha
 Occup=   2.00000000
     1    -2.138932647795E-01
     2     4.647196889409E-01
     3    -9.089025613289E-17
     4     7.437493646710E-02
     5     5.493114105389E-02
     6     5.011296293290E-01
     7    -6.331818625146E-19
     8     4.216916368694E-02
     9     3.923814156395E-02
    10     9.567219099117E-03
    11    -4.390185191577E-18
    12    -3.296467287990E-03
    13    -1.432147386091E-02
    14     1.077241756058E-18
    15     1.279232199903E-01
    16    -2.558931064480E-02
    17     1.340292936123E-01
    18    -3.274265045678E-03
    19     1.245472149658E-02
    20    -2.986918287473E-02
    21     3.262026715080E-18
    22     3.621918637554E-05
    23    -9.848142063626E-03
    24    -2.470345487888E-02
    25    -5.097202938036E-18
    26     5.100466050661E-05
    27    -1.490153236238E-02
    28     1.291806573955E-03
    29     3.314007451425E-19
    30    -1.068720998103E-05
    31     1.215215550503E-03
    32    -2.678515523914E-19
    33    -9.206689031535E-03
    34     3.051039565178E-03
    35    -9.144264285323E-03
    36     2.937469821215E-03
 Sym=  A
 Ene=      -0.7424411053
 Spin= Alpha
 Occup=   2.00000000
     1    -5.285670298424E-04
     2     1.256254551954E-03
     3    -2.180992879235E-16
     4    -5.716515628901E-03
     5     2.653987236018E-03
     6     2.086010645048E-03
     7     1.230309706597E-17
     8    -4.748919504688E-03
     9     1.326793464238E-03
    10     4.678303103587E-04
    11     9.905387674781E-18
    12    -4.826621809627E-04
    13     4.708643781187E-04
    14     9.922430678819E-18
    15     1.890256132077E-03
    16     6.380299786142E-04
    17    -2.743954573674E-03
    18    -2.177248479257E-03
    19    -4.729925262598E-04
    20     1.211626303085E-03
    21     6.602342236997E-17
    22    -5.115873390728E-01
    23    -7.745910120076E-05
    24     2.251746372894E-03
    25     9.874344481724E-17
    26    -3.104438301382E-01
    27     9.675160919250E-04
    28     1.753585305031E-04
    29    -5.028396172741E-17
    30    -4.964914365512E-02
    31     1.757169353683E-04
    32    -1.089791288708E-16
    33    -2.306521160756E-01
    34    -9.992314679545E-02
    35     2.303422262280E-01
    36     9.759779240126E-02
 Sym=  A
 Ene=      -0.6844380729
 Spin= Alpha
 Occup=   2.00000000
     1     1.683767727046E-03
     2    -6.017275059273E-03
     3    -3.955194295417E-16
     4    -2.810487613865E-01
     5     3.867531667143E-01
     6     4.909053253516E-03
     7     9.888877663993E-17
     8    -1.686856098705E-01
     9     2.403554735925E-01
    10     4.030800715712E-02
    11    -5.615546422727E-17
    12     1.296750834507E-02
    13     2.243457420774E-02
    14     1.504569545214E-17
    15     2.193223269543E-01
    16     8.886036396771E-02
    17    -2.174417151613E-01
    18    -1.011049181557E-01
    19    -1.474988255045E-02
    20     3.437105814529E-02
    21    -1.294199494743E-16
    22     6.549224875541E-03
    23    -1.657406658514E-01
    24     6.048813788657E-02
    25     6.130474737871E-17
    26     3.528142539905E-03
    27    -1.242589568713E-01
    28    -6.161652741257E-03
    29    -3.992632737518E-17
    30     6.742521312091E-04
    31     2.541631270410E-03
    32    -1.247713406895E-17
    33    -3.963332543952E-02
    34    -1.386990172335E-02
    35    -4.578063926838E-02
    36    -1.573574910581E-02
 Sym=  A
 Ene=      -0.6030432968
 Spin= Alpha
 Occup=   2.00000000
     1    -2.535532911942E-02
     2     5.840360357345E-02
     3     1.809140937093E-16
     4    -2.010011372626E-01
     5     6.953454354536E-02
     6     1.123407341373E-01
     7     1.729280110408E-16
     8    -1.344510423131E-01
     9     4.177421176220E-02
    10     1.308936370864E-02
    11     3.510251312368E-17
    12    -1.152404564768E-03
    13     1.302896383547E-02
    14     1.790223497089E-17
    15     3.243210621467E-02
    16    -1.918878312066E-02
    17    -1.069417436764E-01
    18    -6.018139284601E-02
    19     6.203842915324E-02
    20    -1.498164677759E-01
    21     1.244865869129E-16
    22     3.001768349265E-03
    23     5.126103061871E-01
    24    -2.509336533828E-01
    25     1.409467379967E-16
    26    -1.226042576632E-03
    27     3.776981732173E-01
    28     2.890163257710E-02
    29     4.999682559637E-17
    30     6.448286837657E-04
    31    -6.197028506626E-03
    32     1.782202686168E-18
    33     1.304339847569E-01
    34     6.514076640718E-02
    35     1.251144236566E-01
    36     6.148940464653E-02
 Sym=  A
 Ene=      -0.5324964994
 Spin= Alpha
 Occup=   2.00000000
     1    -6.396312912840E-02
     2     1.575192922255E-01
     3    -4.224659756665E-16
     4    -4.082760016819E-01
     5    -3.642092482002E-01
     6     2.466659992056E-01
     7    -2.933322632956E-16
     8    -3.025435966916E-01
     9    -2.810492095842E-01
    10    -8.426671752221E-03
    11    -1.776428282092E-17
    12    -2.563264951174E-02
    13     2.137311205763E-02
    14    -2.094294343682E-17
    15    -1.414986904366E-01
    16    -3.417240044241E-02
    17    -1.253804636366E-01
    18    -7.389863937235E-02
    19    -2.075499888771E-02
    20     5.197814765995E-02
    21     3.980765869893E-16
    22     5.101411977781E-03
    23    -1.430701691872E-01
    24     8.430996449649E-02
    25     1.618058174300E-16
    26    -7.485606537996E-04
    27    -9.803045120100E-02
    28    -1.067965309592E-02
    29    -1.916433422281E-19
    30     4.219083704135E-04
    31     1.260354229163E-03
    32     8.061508115553E-19
    33    -3.172369966761E-02
    34    -2.409536144096E-02
    35    -3.858667088330E-02
    36    -2.552122644600E-02
 Sym=  A
 Ene=      -0.5276846195
 Spin= Alpha
 Occup=   2.00000000
     1     3.653833219054E-17
     2    -8.813168120850E-17
     3     2.760694579309E-02
     4     1.931911433856E-16
     5     1.956766979531E-16
     6    -1.693119252454E-16
     7     2.584698809539E-02
     8     1.249714368587E-16
     9     1.526519114097E-16
    10     1.415496533649E-17
    11     1.842556127179E-03
    12     1.246780218459E-17
    13    -1.615722964154E-17
    14     1.223838884474E-03
    15     6.520507328988E-17
    16     2.367869042754E-17
    17     1.035662979858E-16
    18     7.255986635189E-17
    19     9.656643620868E-18
    20     1.255455139980E-16
    21     6.390310607350E-01
    22    -4.278298849791E-18
    23    -1.282188740986E-16
    24    -4.406948640250E-16
    25     5.106434117485E-01
    26     1.342662353855E-16
    27    -2.383887576989E-16
    28    -2.999674923582E-17
    29     3.156218009549E-02
    30    -1.705214990364E-17
    31     3.916472050366E-18
    32     3.786362510533E-04
    33     1.332545681596E-16
    34     1.499731388549E-16
    35     1.890816637270E-18
    36     3.187153725021E-16
 Sym=  A
 Ene=      -0.4626370976
 Spin= Alpha
 Occup=   2.00000000
     1     2.851438913689E-17
     2    -1.879550491075E-16
     3    -6.350971045109E-01
     4     2.475928546202E-16
     5     1.340826516606E-16
     6    -9.206182151246E-17
     7    -5.150451317442E-01
     8     8.024144112870E-17
     9     1.158492547552E-16
    10     5.026201950375E-18
    11    -1.948603088624E-02
    12     3.126994848148E-17
    13    -2.838914670543E-17
    14    -2.681394318623E-02
    15     1.429375877671E-16
    16    -2.428877111999E-16
    17     1.787760581471E-16
    18     1.375686148263E-16
    19     5.693887856066E-17
    20    -2.303831086313E-16
    21     3.493139594185E-02
    22     6.268503516891E-17
    23     2.336748182320E-16
    24    -3.598767946530E-16
    25     2.305501525039E-02
    26    -3.758172981582E-17
    27    -8.138675736760E-17
    28     3.344928726596E-18
    29     2.535223482224E-03
    30    -2.791923828555E-17
    31     7.258299181567E-17
    32     1.586073415782E-05
    33     2.415746903582E-16
    34     3.574592627119E-16
    35     1.550513711578E-16
    36     1.001093360663E-16
 Sym=  A
 Ene=       0.1913836761
 Spin= Alpha
 Occup=   0.00000000
     1     2.490036556674E-02
     2    -3.638274291240E-02
     3    -1.462555766750E-16
     4    -3.979435682507E-02
     5    -6.886758542563E-02
     6    -3.107400804226E-01
     7     2.194842990563E-16
     8    -9.451867717289E-02
     9    -9.594328102602E-02
    10    -5.579545341841E-04
    11    -2.717267430303E-17
    12    -2.708829329847E-03
    13     3.297164976564E-03
    14     7.641748453759E-18
    15     1.643304920292E-02
    16     2.663694379126E-01
    17     1.082067364611E-02
    18     2.460454020552E-01
    19     8.870603012832E-02
    20    -1.175274740560E-01
    21     1.773785045801E-16
    22    -6.276347339338E-03
    23    -1.754541124134E-01
    24    -1.171851449379E+00
    25    -3.375557255180E-16
    26    -1.166290494301E-02
    27    -4.066079804457E-01
    28    -8.876901289132E-03
    29    -3.577866548976E-17
    30    -6.767670055274E-04
    31     7.617687318309E-03
    32    -3.726388747598E-17
    33     5.521933212991E-02
    34     9.680774432832E-01
    35     5.837452741046E-02
    36     9.206431720279E-01
 Sym=  A
 Ene=       0.2692233307
 Spin= Alpha
 Occup=   0.00000000
     1    -7.664740048283E-02
     2     9.323879083650E-02
     3    -2.907837178894E-17
     4     2.258797138692E-01
     5    -1.795410452147E-03
     6     1.077330923356E+00
     7    -9.159043950190E-17
     8     5.528795957916E-01
     9    -2.122135266215E-02
    10    -5.098917112827E-03
    11    -3.523071675155E-17
    12     2.214520874197E-03
    13    -1.722743241694E-02
    14    -3.052061472292E-18
    15    -3.745811520450E-02
    16    -3.242318166134E-01
    17    -5.920904846671E-02
    18    -1.476948732855E+00
    19     1.240387462212E-02
    20     4.826484759632E-03
    21    -5.229119839234E-17
    22     2.328242075122E-02
    23    -1.097507429359E-01
    24    -2.880382682967E-01
    25     3.034324701180E-17
    26     4.892240018429E-02
    27    -1.737716937075E-01
    28    -9.975864368641E-03
    29    -1.457901582030E-17
    30     2.244895103095E-03
    31     2.256151128064E-03
    32    -1.417118414384E-17
    33     1.249837522670E-02
    34     1.872601789924E-01
    35     8.040229110084E-03
    36     3.670811361058E-01
 Sym=  A
 Ene=       0.2881067956
 Spin= Alpha
 Occup=   0.00000000
     1     5.918350516555E-03
     2    -8.437072900091E-03
     3     5.479145759514E-17
     4    -1.553296622451E-02
     5    -3.002759230293E-03
     6    -8.012271275713E-02
     7    -5.498956864407E-18
     8    -3.305894449104E-02
     9    -7.302459478589E-03
    10     6.690030181254E-05
    11    -1.880720726809E-18
    12     5.378158267695E-05
    13     9.480114744860E-04
    14    -5.776006608207E-17
    15     3.304157232779E-03
    16     4.269328796954E-02
    17     3.651424540230E-03
    18     9.360211412168E-02
    19     8.911118166605E-04
    20    -4.182094456632E-03
    21    -2.597617779451E-16
    22     3.246973256929E-01
    23     6.321011643979E-03
    24     3.383397343539E-03
    25     2.138123716174E-16
    26     8.362930664990E-01
    27     9.525217750943E-03
    28     6.980100082955E-04
    29    -2.710432712758E-17
    30     2.038717081978E-02
    31    -3.074794285502E-04
    32    -1.372291824097E-17
    33    -5.244949692641E-02
    34    -1.410485703628E+00
    35     5.366023796390E-02
    36     1.397850889648E+00
 Sym=  A
 Ene=       0.4238901947
 Spin= Alpha
 Occup=   0.00000000
     1    -4.249669945435E-02
     2     8.818541864701E-02
     3     1.476848022141E-16
     4    -1.317305543871E-01
     5     3.034767248763E-01
     6     5.224024544192E-01
     7    -2.243063682365E-16
     8    -3.260098409745E-01
     9     7.467551548467E-01
    10     1.260671810915E-02
    11     5.418051365390E-17
    12     7.267726687966E-03
    13     3.788216635665E-03
    14    -4.660952813590E-17
    15    -9.810696098698E-02
    16    -1.858085666971E+00
    17     3.184927897526E-02
    18     9.098929806291E-01
    19    -1.809156334851E-02
    20     9.865447052300E-02
    21     1.163115497582E-17
    22     1.585783954730E-03
    23    -2.115996619360E-01
    24    -1.449179668770E-01
    25    -1.824642969996E-17
    26     1.354984786963E-02
    27    -3.343560964952E-01
    28    -2.644475750657E-02
    29     1.322163538892E-17
    30    -1.006712468407E-03
    31     8.402086368959E-04
    32     1.842468462747E-18
    33    -3.840903167344E-03
    34     2.740932062109E-01
    35     9.427307103341E-03
    36     2.995138912497E-01
 Sym=  A
 Ene=       0.9961748392
 Spin= Alpha
 Occup=   0.00000000
     1    -9.850719526725E-03
     2     4.545439508602E-02
     3    -1.560018667845E-15
     4    -4.095713315253E-02
     5    -3.782452444120E-02
     6     3.060250397568E-02
     7     1.663874805062E-15
     8     2.158115244778E-01
     9    -8.554041358984E-02
    10     2.770135866744E-02
    11     2.674539676565E-17
    12     2.461595225990E-02
    13     2.461607317609E-02
    14    -2.168243245808E-16
    15     1.325046610449E-01
    16    -9.001450224730E-02
    17    -2.788804250710E-01
    18     7.651974196397E-02
    19     5.560182524789E-04
    20    -4.132642136618E-03
    21     1.459465834888E-15
    22     5.560253093566E-02
    23     1.383919306259E-02
    24     1.668313138501E-03
    25    -1.702705206400E-15
    26     7.097692114762E-01
    27    -3.793454955589E-02
    28    -1.752449475060E-04
    29     6.361772180537E-18
    30    -1.925472250069E-01
    31    -3.037198402038E-03
    32    -1.841159838959E-16
    33    -7.894594622552E-01
    34     3.920841531865E-01
    35     8.170649389003E-01
    36    -3.874443261266E-01
 Sym=  A
 Ene=       1.0698595399
 Spin= Alpha
 Occup=   0.00000000
     1     5.341944043199E-03
     2    -4.101790955358E-02
     3    -2.830559563856E-15
     4    -4.451117447897E-02
     5     1.079652691755E-02
     6    -5.162635844848E-03
     7     3.062920097880E-15
     8    -4.114293627549E-01
     9     5.393190847663E-01
    10    -1.597507073493E-01
    11     5.763558816629E-17
    12    -4.531843479982E-02
    13    -9.361194353648E-02
    14     3.166476558559E-17
    15    -7.970368386644E-01
    16     5.069029904940E-01
    17     8.049241681027E-01
    18    -4.389456916153E-01
    19    -3.734905280338E-03
    20     2.669606490463E-04
    21    -2.464926183274E-15
    22     6.756424797249E-02
    23     2.330858754407E-02
    24     3.617989337896E-02
    25     2.658822413005E-15
    26     1.088587045615E-01
    27     1.599617594734E-01
    28     2.891832050427E-03
    29    -1.189355196156E-17
    30    -5.685328660806E-02
    31     2.819014011310E-02
    32    -2.348218995141E-17
    33    -3.393156488067E-01
    34     1.551853744903E-01
    35     8.350580278393E-02
    36    -1.447261608492E-01
 Sym=  A
 Ene=       1.1330432297
 Spin= Alpha
 Occup=   0.00000000
     1    -2.710854372774E-16
     2     1.752264278866E-15
     3    -3.033391498322E-01
     4    -1.115584637658E-16
     5    -4.732144662101E-16
     6    -5.296555665074E-16
     7     3.125871455240E-01
     8     2.779732531078E-15
     9    -1.351628403712E-16
    10     7.843111566154E-17
    11     1.129271585526E-02
    12     6.202811001862E-16
    13     6.089031098319E-16
    14     2.307996707050E-03
    15     1.208761212331E-16
    16    -1.002973437131E-15
    17    -4.933050528146E-15
    18     2.601039703660E-15
    19     2.231222714851E-16
    20    -6.756428851264E-17
    21    -9.133797494874E-01
    22    -1.914045153216E-15
    23    -3.431285368275E-16
    24    -1.863255793126E-15
    25     9.799457658074E-01
    26     2.011182172795E-15
    27    -2.647372176531E-15
    28    -1.245537865905E-16
    29     8.126247993064E-03
    30     1.183510489288E-16
    31    -6.660051689434E-16
    32     3.782818097850E-04
    33     4.125259513187E-15
    34    -2.044201517185E-15
    35     3.341814698683E-15
    36    -1.052112926706E-16
 Sym=  A
 Ene=       1.1427593468
 Spin= Alpha
 Occup=   0.00000000
     1     1.189166956273E-02
     2    -5.177751548987E-02
     3     5.397515768432E-15
     4    -7.724019220164E-02
     5    -6.795870848310E-02
     6     2.667756849936E-02
     7    -5.948132536931E-15
     8    -8.448661944878E-02
     9     9.292973876556E-02
    10    -9.204115175362E-04
    11     3.268424284667E-17
    12    -3.172130618843E-02
    13    -4.083183004496E-02
    14     7.782354933033E-17
    15     8.868719559740E-02
    16    -1.280479913828E-01
    17     2.824402882140E-01
    18    -1.175375981129E-01
    19     6.370568670062E-02
    20    -2.914834560886E-01
    21     8.537187963430E-16
    22     1.910510252940E-02
    23    -2.841549167596E-01
    24     3.537275404175E-02
    25    -8.662549807924E-16
    26    -3.803446057198E-03
    27    -2.918326735316E-01
    28    -2.704425548272E-02
    29     4.350900355523E-17
    30    -8.300818852747E-03
    31    -2.265824053315E-01
    32     9.664007814418E-17
    33     8.341034822835E-01
    34    -3.944369144814E-01
    35     8.882729445192E-01
    36    -4.552731175896E-01
 Sym=  A
 Ene=       1.2091440886
 Spin= Alpha
 Occup=   0.00000000
     1    -3.346001155177E-14
     2     1.152563236592E-13
     3    -9.163970640440E-01
     4     2.186883980129E-13
     5     8.111310468102E-14
     6    -3.774335081081E-15
     7     9.857282112565E-01
     8     5.296482225449E-14
     9     1.182357578130E-13
    10    -8.118543117120E-14
    11     3.635526948597E-03
    12     8.326288044119E-14
    13     8.985609737211E-14
    14     1.072406067924E-02
    15    -5.753486060439E-13
    16     3.908170672721E-13
    17    -5.318990030381E-13
    18     2.629104879819E-13
    19     9.545229687381E-15
    20    -5.439542631410E-14
    21     3.035269204360E-01
    22    -4.512790001498E-14
    23    -1.405161791867E-13
    24     5.406070970812E-14
    25    -3.374569267387E-01
    26     3.621340618386E-14
    27     1.681117634516E-13
    28    -3.182063591824E-15
    29    -1.548030216093E-02
    30     1.099046140396E-14
    31    -3.223452287587E-14
    32    -1.145096682952E-04
    33     1.366994726455E-13
    34    -1.792844615913E-13
    35     7.041733366019E-14
    36    -7.237469797032E-14
 Sym=  A
 Ene=       1.2103465179
 Spin= Alpha
 Occup=   0.00000000
     1     5.127198414762E-02
     2    -1.768046675217E-01
     3    -5.986674659751E-13
     4    -3.424255514358E-01
     5    -1.222458244746E-01
     6     7.409379322701E-03
     7     6.440767281098E-13
     8    -7.247089016545E-02
     9    -1.851007249685E-01
    10     1.248493362543E-01
    11     2.618234868395E-15
    12    -1.273728418461E-01
    13    -1.383852008873E-01
    14     7.197072235789E-15
    15     8.833578167343E-01
    16    -5.978277412072E-01
    17     8.164401811732E-01
    18    -4.086666920357E-01
    19    -1.395950248809E-02
    20     7.681589493459E-02
    21     1.950755275662E-13
    22     6.388391663972E-02
    23     2.123496545989E-01
    24    -7.574235520312E-02
    25    -2.170553172286E-13
    26    -5.188010593611E-02
    27    -2.575163873250E-01
    28     4.870223914058E-03
    29    -1.010512456932E-14
    30    -1.573293773004E-02
    31     4.690067578059E-02
    32    -9.719909645392E-17
    33    -1.995514584020E-01
    34     2.640456368371E-01
    35    -1.062216467445E-01
    36     1.111457201758E-01
 Sym=  A
 Ene=       1.2198529357
 Spin= Alpha
 Occup=   0.00000000
     1     5.304132119899E-02
     2    -4.037642635358E-01
     3    -3.370642650119E-15
     4     6.872340305887E-01
     5     4.857672830792E-01
     6     6.405456852491E-02
     7     3.591897121748E-15
     8    -8.587166518420E-01
     9    -7.004251075707E-01
    10     3.525966427594E-02
    11     2.419172601551E-16
    12    -4.103395074677E-02
    13    -1.846368958251E-02
    14     3.350031924878E-16
    15     2.177650098023E-01
    16     2.203817490309E-01
    17     1.800107147367E-01
    18     5.142088179832E-02
    19    -6.148363781225E-03
    20     5.149986227964E-02
    21    -1.076430205800E-15
    22     1.475452469103E-01
    23    -2.082869914443E-01
    24     2.356968645968E-03
    25     1.077415756161E-15
    26    -1.348438685673E-01
    27     2.865910545202E-01
    28     1.126729398011E-02
    29     4.161014559118E-17
    30    -3.047103146914E-02
    31     6.023201381728E-03
    32     1.530833295784E-18
    33    -1.081123938026E-01
    34     1.101357726387E-01
    35     7.648027049606E-02
    36    -2.224599477910E-01
 Sym=  A
 Ene=       1.3298062131
 Spin= Alpha
 Occup=   0.00000000
     1     2.748744137967E-02
     2    -2.760772095139E-01
     3    -4.792205892166E-16
     4    -4.495704739800E-02
     5    -4.715807468709E-01
     6     1.563559092578E-01
     7     5.378409727537E-16
     8     8.072556349207E-02
     9     3.701644485526E-01
    10     4.418486226188E-02
    11    -1.814388866473E-16
    12     3.401303613204E-03
    13     1.749212425145E-03
    14     3.200227307400E-16
    15     1.210356608348E-01
    16     2.070559175356E-01
    17     3.338061375136E-03
    18    -7.879412564166E-02
    19    -3.364084136687E-02
    20     2.399457286845E-01
    21    -3.716046781659E-16
    22     5.524120877504E-03
    23    -8.106611308558E-01
    24     6.155305066731E-02
    25     3.836998928841E-16
    26    -7.033772005283E-03
    27     1.148750049440E+00
    28     9.750798144425E-02
    29    -1.863401671162E-16
    30    -2.288944974928E-04
    31     7.164706909486E-02
    32     1.644146016487E-16
    33    -1.347072231242E-01
    34    -1.882825703364E-01
    35    -1.319229419596E-01
    36    -1.979706739150E-01
 Sym=  A
 Ene=       1.3592004018
 Spin= Alpha
 Occup=   0.00000000
     1     1.338420213673E-02
     2    -1.269812009183E-01
     3     3.512085358389E-15
     4     1.758638395779E-02
     5     1.121487454221E-01
     6     9.244202556833E-02
     7    -3.731512101503E-15
     8    -5.451128936268E-02
     9    -1.666397631453E-01
    10    -3.263446702932E-03
    11     2.664082366784E-17
    12    -9.059475096634E-03
    13    -2.739414321312E-02
    14     1.749384140440E-16
    15     2.395106994497E-02
    16     1.090185877628E-01
    17     1.191758580533E-01
    18    -1.591295705054E-01
    19     8.000228383404E-05
    20    -1.227607865486E-02
    21     3.493527975297E-16
    22    -1.022405790712E+00
    23    -4.573843257147E-02
    24     3.406194808928E-02
    25    -2.186972560977E-16
    26     1.520984518535E+00
    27     8.191571925437E-02
    28     7.597871701925E-03
    29     1.061584535512E-17
    30     2.347690008665E-02
    31     4.555169100411E-03
    32    -4.304434793569E-16
    33     9.686910709562E-02
    34    -9.451946735034E-01
    35    -1.130806241758E-01
    36     8.962741080245E-01
 Sym=  A
 Ene=       1.4637091644
 Spin= Alpha
 Occup=   0.00000000
     1    -2.038804484893E-02
     2     3.745331550037E-01
     3    -3.860778885397E-15
     4     6.411964793402E-01
     5    -6.666407500715E-01
     6    -4.497350666665E-01
     7     4.106605179016E-15
     8    -1.063226842612E+00
     9     1.055683142274E+00
    10     4.166680109475E-02
    11     2.446366081941E-16
    12    -2.339693500704E-02
    13    -1.907609473663E-02
    14    -4.211169057159E-16
    15     2.186785887757E-01
    16    -1.109639843671E+00
    17    -2.364646360395E-02
    18     1.087800062928E+00
    19    -1.598057405516E-02
    20     3.431870246197E-01
    21     1.658103082309E-15
    22    -8.712502533374E-02
    23     2.998137948431E-01
    24    -5.873213819369E-01
    25    -1.746451497947E-15
    26     1.419768846427E-01
    27    -6.593120097463E-01
    28    -8.994804592661E-02
    29    -9.724731459156E-17
    30    -3.458632003548E-03
    31    -6.261630184876E-02
    32    -3.257749541398E-17
    33     6.733012906346E-02
    34     2.082964659708E-01
    35     6.447864099189E-02
    36     3.675720451008E-01
 Sym=  A
 Ene=       1.6279861685
 Spin= Alpha
 Occup=   0.00000000
     1     3.175865743335E-02
     2    -7.464506015098E-01
     3    -6.191708835240E-16
     4    -1.727670964799E-01
     5     4.693653666164E-02
     6     1.141221281792E+00
     7     8.354534474301E-16
     8     4.098407749071E-01
     9     3.378816797818E-03
    10    -5.129485248164E-02
    11    -1.161703223028E-15
    12     6.428816556156E-02
    13     5.627787676191E-02
    14    -1.143548088198E-15
    15    -1.678317125074E-01
    16    -3.483446981447E-02
    17    -8.135094992416E-02
    18    -4.798351817098E-01
    19    -5.758727110880E-02
    20     1.404804448594E+00
    21     9.106750605855E-16
    22     1.213007691286E-02
    23     2.182466181986E-01
    24    -2.211031350908E+00
    25    -8.498259065955E-16
    26    -2.138348489412E-02
    27    -6.335593354853E-01
    28    -6.973698671380E-02
    29    -1.339275806687E-17
    30     1.933469189495E-03
    31    -2.060122018447E-01
    32    -6.722717421550E-17
    33     1.634112271298E-01
    34     5.956710165163E-01
    35     1.632263385506E-01
    36     5.701031123396E-01
 Sym=  A
 Ene=       1.8280191672
 Spin= Alpha
 Occup=   0.00000000
     1    -4.205347024237E-02
     2     1.164597931628E+00
     3     9.553745249278E-17
     4     7.224084691097E-03
     5     2.750857281373E-01
     6    -1.985244014250E+00
     7     7.798565033196E-17
     8    -1.304179910867E-01
     9    -6.809746395620E-01
    10     1.014982632319E-01
    11    -1.125139046445E-16
    12    -1.528563615325E-01
    13    -1.088491412144E-01
    14    -3.378828790943E-16
    15    -1.699242875500E-02
    16     1.190936961211E+00
    17     1.246269085455E-01
    18     1.497119551741E-01
    19    -2.570145755105E-02
    20     7.406699798766E-01
    21     4.741363574296E-16
    22    -8.324318998121E-03
    23    -1.348189217911E-01
    24    -1.127538594240E+00
    25    -4.320609906865E-16
    26     1.583498073338E-02
    27     2.039466859989E-01
    28     4.978153960477E-01
    29     2.893412292851E-17
    30    -3.905657081850E-03
    31    -4.497315754247E-02
    32     1.440597924695E-16
    33     7.313438469973E-02
    34     1.279876984330E-01
    35     7.460774422212E-02
    36     1.421541502734E-01
 Sym=  A
 Ene=       2.0004296500
 Spin= Alpha
 Occup=   0.00000000
     1    -8.202012400689E-18
     2    -4.105195058689E-16
     3     1.016655814094E-04
     4    -5.671404678480E-17
     5     2.205962923061E-16
     6     8.364271831110E-16
     7    -1.491342644236E-04
     8     7.486757907983E-16
     9     1.412429641543E-16
    10     1.795560742351E-16
    11    -7.594774876985E-05
    12    -6.374628205254E-15
    13     3.194509059129E-15
    14     5.189785465358E-04
    15    -8.250536414583E-16
    16     6.674617777490E-16
    17    -4.798883795092E-16
    18    -4.864024457561E-16
    19    -1.674000775911E-17
    20    -2.834723441766E-17
    21     1.921136743576E-04
    22    -6.640455186848E-16
    23    -6.452291264609E-17
    24     2.291676012268E-16
    25    -3.984334507707E-04
    26     1.011858390033E-15
    27     3.650079223849E-16
    28    -1.312880191221E-15
    29    -6.890909024864E-03
    30    -3.057154409777E-16
    31    -4.579726879710E-16
    32     9.999760532858E-01
    33    -2.392514513185E-16
    34    -5.493261811032E-16
    35    -3.891240845250E-16
    36     5.495040982192E-16
 Sym=  A
 Ene=       2.0330349030
 Spin= Alpha
 Occup=   0.00000000
     1    -2.793564151571E-17
     2     5.279245459394E-16
     3    -1.308494994061E-02
     4    -1.211770521780E-16
     5     3.709135071519E-17
     6    -9.232043819388E-16
     7     1.765470537593E-02
     8     4.267974677445E-16
     9    -2.205814969776E-16
    10     1.888984625067E-16
    11    -2.996617922973E-02
    12    -1.883956970584E-15
    13     7.497616889829E-16
    14     1.613865281304E-02
    15    -4.878449264999E-16
    16     1.404806956650E-15
    17    -2.167249820880E-16
    18    -2.193363142894E-16
    19    -5.750142773652E-18
    20     3.455177410475E-16
    21    -8.439969975426E-03
    22    -2.144283514329E-17
    23    -3.224029454374E-16
    24    -4.833982732583E-16
    25    -2.898866963439E-02
    26     2.001242890535E-17
    27     5.710635234663E-16
    28    -1.076563844683E-15
    29     9.987513951797E-01
    30     1.697242439276E-17
    31     1.384146621828E-16
    32     6.864025616969E-03
    33     3.259075986537E-16
    34    -3.252464292768E-16
    35    -6.518068083119E-17
    36     3.720991347396E-17
 Sym=  A
 Ene=       2.0514850671
 Spin= Alpha
 Occup=   0.00000000
     1     3.076310589492E-03
     2    -1.061230117534E-02
     3     2.772345761831E-16
     4     1.089594422154E-02
     5    -3.109053561710E-02
     6     9.802209464418E-03
     7    -6.922970159953E-16
     8    -1.120386204374E-01
     9     1.681691339641E-02
    10    -3.117496090687E-02
    11    -1.676881069050E-14
    12     8.768835182818E-01
    13    -4.244931804034E-01
    14     2.103560959459E-14
    15     1.120895065323E-01
    16    -1.844215409186E-01
    17     6.878572481645E-02
    18     5.914068453168E-02
    19     1.877045840362E-03
    20    -3.200265575791E-02
    21    -1.343197976446E-16
    22     1.098723593784E-02
    23     3.113188711239E-02
    24     2.830079794321E-02
    25     2.842362519033E-17
    26    -1.618531070167E-02
    27    -9.434857663028E-02
    28     2.083571848593E-01
    29     1.331524530092E-15
    30     1.182071989426E-02
    31     2.200264574746E-02
    32     7.380938113769E-15
    33     1.215133342322E-02
    34     2.251349900756E-02
    35     1.900508491675E-02
    36     6.898310122147E-03
 Sym=  A
 Ene=       2.0649436216
 Spin= Alpha
 Occup=   0.00000000
     1     1.751620408931E-16
     2    -3.058599680768E-15
     3    -7.006555073596E-04
     4     9.626488190315E-17
     5    -1.413406692377E-15
     6     5.197521337090E-15
     7     3.317367448005E-03
     8    -2.135638823561E-15
     9     1.546967835824E-15
    10    -1.950020666901E-15
    11     7.722232311165E-01
    12     2.297265541987E-14
    13    -1.022505819816E-14
    14    -6.344218182454E-01
    15     3.596724833286E-15
    16    -7.763777701275E-15
    17     1.469389643480E-15
    18     5.785349583858E-16
    19     7.833608403698E-17
    20    -1.522612960497E-15
    21     8.766810792353E-03
    22     2.289449124691E-16
    23     9.234543591470E-16
    24     1.639934800998E-15
    25    -1.317081943507E-02
    26     1.332860134640E-16
    27    -3.618919784402E-15
    28     8.154722347373E-15
    29     3.329906897157E-02
    30     1.039022122307E-15
    31     1.383634811509E-15
    32     6.164260418397E-04
    33     6.847035310375E-16
    34    -1.296873694648E-16
    35     1.181859990972E-15
    36     6.124571245901E-16
 Sym=  A
 Ene=       2.1005061324
 Spin= Alpha
 Occup=   0.00000000
     1    -1.280406719465E-16
     2     6.189266244966E-15
     3     8.764952425042E-03
     4    -1.832301885942E-16
     5     1.683100864051E-15
     6    -1.229728330765E-14
     7     3.018992274757E-02
     8    -7.392184655239E-16
     9    -5.180162797034E-15
    10     1.884436641912E-15
    11    -6.342424702235E-01
    12     5.432774529927E-15
    13    -5.224247992033E-15
    14    -7.722741828553E-01
    15    -6.785692887925E-16
    16     1.046078894487E-14
    17     1.215920620689E-15
    18    -3.976529567806E-16
    19     4.021712564440E-17
    20    -5.402447930532E-16
    21    -6.087019104532E-03
    22    -1.840306958462E-16
    23    -2.437838744509E-15
    24     1.744310191719E-15
    25     8.452842531946E-03
    26     6.900236190476E-16
    27     5.792145946371E-15
    28    -5.931684371094E-15
    29    -6.716699362119E-03
    30     5.661069891564E-16
    31     4.893324232057E-16
    32     3.134973488217E-04
    33    -3.937744221133E-16
    34    -2.701631394515E-15
    35     1.277657854345E-16
    36    -1.657717893108E-15
 Sym=  A
 Ene=       2.1305407663
 Spin= Alpha
 Occup=   0.00000000
     1    -1.822475282538E-02
     2     6.574154762575E-01
     3     6.899573225609E-16
     4    -5.629043140737E-02
     5     1.995817174308E-01
     6    -1.284651814663E+00
     7    -7.405188230227E-16
     8     8.691546376713E-02
     9    -5.687114348905E-01
    10     2.478351940415E-01
    11     8.236267938577E-15
    12     7.466683718535E-02
    13    -2.816901596862E-01
    14     4.611859181388E-15
    15    -2.220664278969E-01
    16     1.338186707425E+00
    17     4.044535344999E-02
    18    -1.323830467474E-01
    19    -1.270575676423E-02
    20     2.956968144457E-01
    21     1.123378741351E-16
    22     2.585400305433E-04
    23    -2.125131648086E-01
    24    -3.489381941463E-01
    25    -4.088223589192E-17
    26     9.710190571331E-04
    27     5.847554126273E-01
    28    -8.150624415552E-01
    29    -5.543398056626E-16
    30     1.886517249105E-03
    31    -9.284423956246E-02
    32     3.422412100020E-16
    33    -6.192298360925E-02
    34    -7.458389195770E-02
    35    -5.877465364115E-02
    36    -7.641954430493E-02
 Sym=  A
 Ene=       2.6172117237
 Spin= Alpha
 Occup=   0.00000000
     1     4.791727068190E-04
     2     8.609187754254E-02
     3    -1.003945986500E-15
     4     1.101098070265E-03
     5     2.841082529879E-02
     6    -1.682045468269E-01
     7     8.425035509423E-16
     8    -4.622377810445E-02
     9    -9.272628326402E-02
    10    -1.050081831144E-01
    11     1.579066932223E-16
    12     3.639351167575E-02
    13     7.350132542400E-02
    14     1.005929974321E-15
    15     9.088281366259E-02
    16     8.375060764225E-03
    17     6.909428701836E-02
    18     1.097758412680E-02
    19     2.206740922493E-02
    20     5.586041016896E-01
    21     1.037207883275E-15
    22    -1.642641006524E-03
    23     3.705514476801E-02
    24    -1.407428073196E+00
    25    -1.008207172560E-15
    26     4.033094043130E-03
    27    -7.402790545657E-01
    28    -1.265568012441E-01
    29    -3.550764224186E-16
    30     6.241532885162E-04
    31     1.081063361314E+00
    32     3.340832816221E-16
    33     8.650138552143E-01
    34     1.318948685861E-01
    35     8.678702498956E-01
    36     1.325734241184E-01
 Sym=  A
 Ene=       2.7390601184
 Spin= Alpha
 Occup=   0.00000000
     1     2.060835181168E-02
     2     7.484198266656E-01
     3    -8.016435187958E-17
     4    -2.395054252538E-04
     5     8.649452146649E-02
     6    -1.847822628283E+00
     7     2.164019177097E-16
     8    -5.933053154234E-01
     9    -6.029745240552E-01
    10    -4.222033279490E-01
    11    -1.692994145732E-16
    12     4.410234756255E-01
    13     8.569058190770E-01
    14    -1.622537832454E-16
    15     6.968329395751E-01
    16     6.915053326270E-01
    17     1.009001213800E+00
    18     3.135585897111E-02
    19    -7.974845940689E-03
    20     8.489683279618E-02
    21     6.474179759464E-17
    22    -1.104244944612E-02
    23    -1.231262688219E-01
    24    -1.488421978517E-02
    25    -2.114913634786E-17
    26    -9.241214604136E-03
    27     4.060228425370E-01
    28    -1.519030308698E-01
    29     2.841090385321E-17
    30    -5.867822775301E-02
    31    -1.510269731565E-01
    32    -2.844706080493E-17
    33    -9.730350881151E-02
    34    -6.734633258538E-02
    35    -1.664192063174E-01
    36    -5.038271695421E-02
 Sym=  A
 Ene=       2.9326710041
 Spin= Alpha
 Occup=   0.00000000
     1    -1.618772446356E-03
     2    -5.079391833338E-02
     3    -1.806919845347E-16
     4    -7.085433198478E-03
     5    -1.024666041370E-02
     6     1.294912421667E-01
     7     7.755150512918E-17
     8     5.127633498297E-03
     9     1.098768876062E-01
    10     1.170253943966E-01
    11     2.364253678452E-16
    12     1.406299398450E-02
    13     3.417161780582E-03
    14    -8.431822673339E-16
    15    -1.236312240541E-01
    16    -6.879702965496E-02
    17     8.760824387428E-03
    18     1.137091512893E-02
    19     1.010525786059E-03
    20    -9.839844991196E-03
    21     5.516298123582E-17
    22     7.025268959276E-03
    23     1.407685921383E-02
    24    -6.878967890239E-04
    25     8.915962413388E-17
    26    -8.989776270867E-01
    27    -4.659301826187E-02
    28     1.404529907384E-02
    29     4.009583720996E-17
    30    -1.287694849580E+00
    31     1.441997571424E-02
    32    -2.712560385842E-16
    33     9.881355883396E-01
    34    -1.761819905157E-02
    35    -9.579419730755E-01
    36     3.171443479934E-02
 Sym=  A
 Ene=       3.0227586069
 Spin= Alpha
 Occup=   0.00000000
     1     2.279211551147E-03
     2     1.740359774933E-01
     3     3.387866532107E-17
     4    -1.498893421774E-02
     5     4.563360968623E-02
     6    -4.213212766353E-01
     7     1.990106365607E-17
     8     5.065162247048E-01
     9    -8.922530838626E-01
    10    -1.130309610190E+00
    11     4.153976967790E-17
    12    -2.710900409056E-01
    13    -5.395636088042E-01
    14     2.088883008578E-16
    15     1.041888013042E+00
    16     3.180590797467E-01
    17    -8.477111675293E-01
    18    -1.554230046058E-02
    19    -5.415320673757E-03
    20     5.937648407892E-02
    21     4.813986697243E-17
    22     8.638347041795E-03
    23    -8.751828410572E-02
    24    -1.301060011415E-02
    25    -6.037387022379E-17
    26    -1.013781914417E-01
    27     2.528551222873E-01
    28    -9.627268538787E-02
    29    -2.775192406566E-17
    30    -1.129120613422E-01
    31    -7.099608649655E-02
    32     2.694140821120E-17
    33     1.842266799881E-02
    34    -3.152077849464E-02
    35    -1.665343071922E-01
    36    -3.658827992684E-02
