[Molden Format]
[Title]
 output-mgo-rhf-sto3g-bipole-k222
[Atoms] (AU)
 Mg       1    12       0.000000000000       0.000000000000       0.000000000000
 O        2     8       3.978818355400       3.978818355400       3.978818355400
[GTO]
  1 0
 s   3  1.00
      2.9923740000E+02      1.5432896493E-01
      5.4506470000E+01      5.3532813409E-01
      1.4751580000E+01      4.4463453538E-01
 s   3  1.00
      1.5121820000E+01     -9.9967234040E-02
      3.5139870000E+00      3.9951284548E-01
      1.1428570000E+00      7.0011550287E-01
 p   3  1.00
      1.5121820000E+01      1.5591628221E-01
      3.5139870000E+00      6.0768374670E-01
      1.1428570000E+00      3.9195741123E-01
 s   3  1.00
      1.3954480000E+00     -2.1962034980E-01
      3.8932600000E-01      2.2559541388E-01
      1.5238000000E-01      9.0039834729E-01
 p   3  1.00
      1.3954480000E+00      1.0587600755E-02
      3.8932600000E-01      5.9516680660E-01
      1.5238000000E-01      4.6200085776E-01

  2 0
 s   3  1.00
      1.3070932000E+02      1.5432896872E-01
      2.3808861000E+01      5.3532813557E-01
      6.4436083000E+00      4.4463453632E-01
 s   3  1.00
      5.0331513000E+00     -9.9967228657E-02
      1.1695961000E+00      3.9951282463E-01
      3.8038900000E-01      7.0011546059E-01
 p   3  1.00
      5.0331513000E+00      1.5591626848E-01
      1.1695961000E+00      6.0768371407E-01
      3.8038900000E-01      3.9195738617E-01

[MO]
 Sym=  A
 Ene=     -48.0971387178
 Spin= Alpha
 Occup=   2.00000000
     1   9.938948193133E-01+2.834282351825E-20j
     2   2.075941945841E-02+7.318291534970E-22j
     3   9.004258270867E-06+3.411242437935E-21j
     4   9.004258321982E-06-9.187021089535E-20j
     5   9.004258264626E-06-3.312696119098E-20j
     6   -3.272786947943E-03-1.238284028041E-21j
     7   -2.736103211409E-05-3.765524344767E-20j
     8   -2.736103226970E-05+1.568602796965E-20j
     9   -2.736103197263E-05-4.175185444838E-20j
    10   -3.026743189008E-04-1.357055489203E-21j
    11   2.126260261932E-03+3.693387380208E-21j
    12   -1.606587203247E-05-1.534590454604E-20j
    13   -1.606587206270E-05-2.820003084306E-20j
    14   -1.606587200849E-05-4.237481877707E-20j
 Sym=  A
 Ene=     -19.4861043320
 Spin= Alpha
 Occup=   2.00000000
     1   -5.574558209529E-04-2.991875034222E-20j
     2   2.231102088593E-03+1.231768943803E-19j
     3   6.151584908428E-05-9.200487053848E-20j
     4   6.151584998284E-05-1.174748406715E-19j
     5   6.151584885185E-05-1.012533721032E-19j
     6   -6.829829348909E-03-3.321308444761E-19j
     7   -1.891225115427E-04+2.500048792059E-19j
     8   -1.891225139713E-04+3.096150798622E-19j
     9   -1.891225093076E-04+3.296187159561E-19j
    10   9.938936779421E-01+2.745480569484E-18j
    11   2.640979631858E-02+2.676819638452E-19j
    12   -5.512125218486E-05+2.887502535052E-20j
    13   -5.512125217227E-05+6.126141498779E-20j
    14   -5.512125223925E-05+1.251651682301E-19j
 Sym=  A
 Ene=      -3.1855540749
 Spin= Alpha
 Occup=   2.00000000
     1   -3.148056758673E-01+2.355893123861E-18j
     2   1.022532407134E+00-7.635741404424E-18j
     3   -4.449016786022E-05-1.198522522502E-19j
     4   -4.449017358070E-05-3.355115915118E-18j
     5   -4.449017133809E-05-5.842640266084E-18j
     6   4.556554345185E-02-7.423462763191E-19j
     7   2.425318421646E-04+1.449152884297E-18j
     8   2.425318582805E-04+1.195878250409E-19j
     9   2.425318281243E-04-6.801586083856E-19j
    10   5.458096254363E-04-9.237357040989E-19j
    11   -1.332665764849E-02+3.633480755689E-18j
    12   1.526566658928E-04+1.111151963681E-19j
    13   1.526566683261E-04+7.964587605523E-19j
    14   1.526566631844E-04+1.338442390256E-19j
 Sym=  A
 Ene=      -1.6313197712
 Spin= Alpha
 Occup=   2.00000000
     1   2.299588097560E-09-1.007617867285E-18j
     2   -8.736135278669E-09+3.066235220897E-18j
     3   6.058115114891E-01+3.063730776482E-12j
     4   9.961564242692E-02+2.275554485649E-13j
     5   -7.053758031484E-01-3.290903001213E-12j
     6   1.681023028812E-08+3.450222280515E-18j
     7   1.103665019997E-01+5.581494597298E-13j
     8   1.814833592318E-02+4.145787837097E-14j
     9   -1.285054644649E-01-5.995373736148E-13j
    10   8.919024966630E-09+4.678450962443E-19j
    11   -4.529804578706E-08-2.784925048854E-18j
    12   1.952228152542E-03+9.871038200797E-15j
    13   3.210347918082E-04+7.330523204903E-16j
    14   -2.273166292472E-03-1.060379951311E-14j
 Sym=  A
 Ene=      -1.6313197540
 Spin= Alpha
 Occup=   2.00000000
     1   -5.566253947601E-09-1.608884175781E-19j
     2   2.114569281470E-08+5.999457705387E-19j
     3   4.647204561814E-01-5.538533050629E-13j
     4   -7.570559474182E-01+1.262280622766E-12j
     5   2.922107409728E-01-7.083554007841E-13j
     6   -4.068160548625E-08+8.968636765128E-19j
     7   8.466302108980E-02-1.009014393242E-13j
     8   -1.379203150865E-01+2.299621038940E-13j
     9   5.323460668653E-02-1.290475321472E-13j
    10   -2.158661289908E-08-7.160348387989E-21j
    11   1.096339550074E-07-1.742246364453E-19j
    12   1.497683853540E-03-1.786247391926E-15j
    13   -2.439602454625E-03+4.069890772716E-15j
    14   9.416929092444E-04-2.283416583902E-15j
 Sym=  A
 Ene=      -1.6312466827
 Spin= Alpha
 Occup=   2.00000000
     1   7.219993790120E-05+1.073257808762E-18j
     2   -2.742776407734E-04-3.470376252577E-18j
     3   5.399968633082E-01+5.130200597801E-17j
     4   5.399188073291E-01+1.070505964584E-16j
     5   5.400251488336E-01-7.701712379730E-17j
     6   5.276266326906E-04-3.247043366113E-18j
     7   9.809146606738E-02+9.373435885819E-18j
     8   9.807727659420E-02+1.953106070949E-17j
     9   9.809663547697E-02-1.407499648371E-17j
    10   2.799749573319E-04+1.212623701427E-18j
    11   -1.421943748394E-03-3.801952760810E-18j
    12   9.637821131777E-04-1.452554610065E-18j
    13   9.635342794091E-04-1.247871589525E-18j
    14   9.638750996224E-04-1.605287039242E-18j
 Sym=  A
 Ene=      -0.6606621388
 Spin= Alpha
 Occup=   2.00000000
     1   3.951700197640E-02-1.209896314997E-17j
     2   -1.500779342034E-01+4.597159582126E-17j
     3   -7.882814948495E-04-9.041047369851E-18j
     4   -7.882815843242E-04-1.037009606884E-17j
     5   -7.882813163503E-04-7.747010335279E-18j
     6   1.980368077082E-01-6.853825863183E-17j
     7   1.338874961481E-03+1.478799328977E-17j
     8   1.338875142642E-03+1.465857221206E-17j
     9   1.338874778762E-03+9.086440824946E-18j
    10   -2.289885883357E-01+3.541612522959E-17j
    11   8.418983345225E-01-1.212755726812E-16j
    12   4.974198839139E-05+2.456276985389E-18j
    13   4.974200511478E-05+2.791555963579E-18j
    14   4.974196686834E-05+6.416779463432E-18j
 Sym=  A
 Ene=       0.2357765971
 Spin= Alpha
 Occup=   2.00000000
     1   -2.970060059921E-09-6.789322319305E-19j
     2   1.167382362834E-08+2.705510076639E-18j
     3   7.126939621208E-02+4.321825001311E-11j
     4   3.078043189394E-02+1.770359624372E-11j
     5   -1.020493290945E-01-6.092149702666E-11j
     6   -2.494165796994E-08-5.537783008046E-18j
     7   -1.115100524114E-01-6.762045823413E-11j
     8   -4.815998217361E-02-2.769957556377E-11j
     9   1.596692477172E-01+9.531948561206E-11j
    10   -6.838447602595E-09-1.306617260912E-18j
    11   3.338963777961E-08+6.644013917893E-18j
    12   5.358965173135E-01+3.249713770802E-10j
    13   2.314482461725E-01+1.331192315528E-10j
    14   -7.673409877748E-01-4.580879373961E-10j
 Sym=  A
 Ene=       0.2357766113
 Spin= Alpha
 Occup=   2.00000000
     1   -2.336521145662E-09-1.496790654178E-20j
     2   9.183821282800E-09-1.452207201087E-19j
     3   -7.668913484071E-02+4.085066753496E-11j
     4   1.000657055428E-01-5.419675506622E-11j
     5   -2.337616542696E-02+1.334588388521E-11j
     6   -1.962883807673E-08+1.899128953505E-18j
     7   1.199899881951E-01-6.391611116993E-11j
     8   -1.565655631312E-01+8.479774086823E-11j
     9   3.657494096565E-02-2.088131025461E-11j
    10   -5.404236942576E-09+1.287666784434E-18j
    11   2.637506211433E-08-5.718772785337E-18j
    12   -5.766502530283E-01+3.071692565704E-10j
    13   7.524255447803E-01-4.075224001746E-10j
    14   -1.757723021739E-01+1.003516544379E-10j
 Sym=  A
 Ene=       0.2374525208
 Spin= Alpha
 Occup=   2.00000000
     1   1.364431073188E-03-9.302232432267E-19j
     2   -5.362540256415E-03+3.867259863953E-18j
     3   -7.100383868118E-02+2.274450839724E-16j
     4   -7.100362511916E-02+2.212630775897E-16j
     5   -7.100411870502E-02+2.648652713295E-16j
     6   1.143926980181E-02-9.103800537119E-18j
     7   1.091167264157E-01-3.509926074531E-16j
     8   1.091164008308E-01-3.409800144396E-16j
     9   1.091171606007E-01-4.085351953024E-16j
    10   3.082604403084E-03-3.959369106003E-18j
    11   -1.508112582235E-02+1.845776414053E-17j
    12   -5.594706336809E-01+1.742845022967E-15j
    13   -5.594689368957E-01+1.702215028496E-15j
    14   -5.594728653024E-01+2.043143500540E-15j
 Sym=  A
 Ene=       0.7525709465
 Spin= Alpha
 Occup=   0.00000000
     1   -1.046120883855E-01+1.914591960097E-18j
     2   4.115204219120E-01-7.573579981699E-18j
     3   -6.892371107374E-03-4.355790064871E-18j
     4   -6.892373006908E-03+3.594170507191E-18j
     5   -6.892368825615E-03+4.893170817229E-18j
     6   -8.660146317950E-01+1.405673352484E-17j
     7   1.496282533738E-02+7.722462975493E-18j
     8   1.496282996833E-02-2.736071810413E-18j
     9   1.496282080769E-02-9.130856519987E-20j
    10   -1.757110639121E-01-6.971365937152E-18j
    11   8.992291339291E-01+2.495696851147E-17j
    12   -6.658619713784E-03+7.799397627455E-18j
    13   -6.658616948999E-03+2.226564994195E-17j
    14   -6.658622347153E-03+2.993234991225E-17j
 Sym=  A
 Ene=       1.5413908810
 Spin= Alpha
 Occup=   0.00000000
     1   -2.535325051187E-03-1.635365198397E-20j
     2   1.004028796961E-02+2.751357243142E-19j
     3   3.539812818641E-01+5.530335354897E-17j
     4   3.539874813529E-01+5.956317847135E-17j
     5   3.539753565654E-01+3.445108027133E-17j
     6   -2.249787900094E-02-1.019595398253E-18j
     7   -8.645945957780E-01-1.355004683220E-16j
     8   -8.646097632699E-01-1.457743418546E-16j
     9   -8.645801421853E-01-8.405210595520E-17j
    10   -7.272700914402E-03+3.245690753424E-18j
    11   3.580094295594E-02-1.341358122409E-17j
    12   -2.136697362365E-01-4.050179673319E-17j
    13   -2.136737370797E-01-4.323464329608E-17j
    14   -2.136659253363E-01-2.544632798038E-17j
 Sym=  A
 Ene=       1.5567653283
 Spin= Alpha
 Occup=   0.00000000
     1   2.416700173841E-08+7.720813517281E-20j
     2   -9.571484589233E-08-2.613025534140E-19j
     3   3.568647059521E-01+4.522894622793E-13j
     4   1.263162023486E-01-7.737509632128E-14j
     5   -4.831911718399E-01-3.748894590969E-13j
     6   2.146480918630E-07-1.462413928468E-19j
     7   -8.734381840195E-01-1.106994147645E-12j
     8   -3.091637593448E-01+1.893774288807E-13j
     9   1.182626991479E+00+9.175553900523E-13j
    10   6.967504155413E-08+5.792996949822E-19j
    11   -3.429153262620E-07-2.020721510686E-18j
    12   -2.291949858568E-01-2.904891491486E-13j
    13   -8.112639891690E-02+4.969105946302E-14j
    14   3.103275418804E-01+2.407789242911E-13j
 Sym=  A
 Ene=       1.5567659368
 Spin= Alpha
 Occup=   0.00000000
     1   -2.520315393488E-08+3.324862154238E-19j
     2   9.981857930114E-08-1.147153383610E-18j
     3   3.519027958883E-01+2.478521508744E-12j
     4   -4.850029115363E-01-3.175160087218E-12j
     5   1.331107895484E-01+6.966919193403E-13j
     6   -2.238503109561E-07+1.973082114349E-18j
     7   -8.612945098891E-01-6.066268956803E-12j
     8   1.187061092293E+00+7.771312474699E-12j
     9   -3.257927029992E-01-1.705174122876E-12j
    10   -7.266033897510E-08+8.998148290591E-20j
    11   3.576087296441E-07-6.671910271419E-19j
    12   -2.260081368608E-01-1.591828556391E-12j
    13   3.114912779977E-01+2.039244733218E-12j
    14   -8.548956379164E-02-4.474483224226E-13j
