[Molden Format]
[Title]
 output-mgo-rhf-sto3g-gdf-k222
[Atoms] (AU)
 Mg       1    12       0.000000000000       0.000000000000       0.000000000000
 O        2     8       3.978818355400       3.978818355400       3.978818355400
[GTO]
  1 0
 s   3  1.00
      2.9923740000E+02      1.5432896493E-01
      5.4506470000E+01      5.3532813409E-01
      1.4751580000E+01      4.4463453538E-01
 s   3  1.00
      1.5121820000E+01     -9.9967234040E-02
      3.5139870000E+00      3.9951284548E-01
      1.1428570000E+00      7.0011550287E-01
 p   3  1.00
      1.5121820000E+01      1.5591628221E-01
      3.5139870000E+00      6.0768374670E-01
      1.1428570000E+00      3.9195741123E-01
 s   3  1.00
      1.3954480000E+00     -2.1962034980E-01
      3.8932600000E-01      2.2559541388E-01
      1.5238000000E-01      9.0039834729E-01
 p   3  1.00
      1.3954480000E+00      1.0587600755E-02
      3.8932600000E-01      5.9516680660E-01
      1.5238000000E-01      4.6200085776E-01

  2 0
 s   3  1.00
      1.3070932000E+02      1.5432896872E-01
      2.3808861000E+01      5.3532813557E-01
      6.4436083000E+00      4.4463453632E-01
 s   3  1.00
      5.0331513000E+00     -9.9967228657E-02
      1.1695961000E+00      3.9951282463E-01
      3.8038900000E-01      7.0011546059E-01
 p   3  1.00
      5.0331513000E+00      1.5591626848E-01
      1.1695961000E+00      6.0768371407E-01
      3.8038900000E-01      3.9195738617E-01

[MO]
 Sym=  A
 Ene=     -48.5221556023
 Spin= Alpha
 Occup=   2.00000000
     1   9.948125269463E-01+1.473718477238E-16j
     2   1.770266084973E-02-4.720593037877E-18j
     3   1.900989893714E-09+6.199867311802E-17j
     4   1.900992409062E-09+3.942973243332E-17j
     5   1.900994582582E-09-1.483463094185E-17j
     6   -2.644851275713E-03-9.013022627367E-18j
     7   -5.697277458057E-09-2.296821973125E-17j
     8   -5.697279038812E-09+1.146409609252E-17j
     9   -5.697280071187E-09+1.949763944527E-17j
    10   -2.456597462421E-04-1.369184522552E-17j
    11   1.720509654155E-03+1.828967689549E-17j
    12   -3.308970958100E-09-3.128375952563E-17j
    13   -3.308971287048E-09+6.155576878874E-17j
    14   -3.308971302311E-09-3.826119210903E-18j
 Sym=  A
 Ene=     -19.5408133035
 Spin= Alpha
 Occup=   2.00000000
     1   5.373520510613E-04+1.607707170100E-17j
     2   -2.178028721372E-03-2.417214714594E-17j
     3   -2.077865167131E-08-3.852293165347E-17j
     4   -2.077865299233E-08-7.867250566834E-17j
     5   -2.077865277282E-08+2.473797329135E-16j
     6   6.643715034367E-03+3.437336316531E-17j
     7   6.407570023307E-08+1.733737078784E-16j
     8   6.407570418590E-08+2.670702783003E-16j
     9   6.407570448467E-08-7.886359523845E-16j
    10   -9.940964310772E-01-3.221557400847E-16j
    11   -2.557831518646E-02-2.649003640941E-17j
    12   1.941588643736E-08-9.787632335421E-17j
    13   1.941589230301E-08-2.058143810806E-16j
    14   1.941589812258E-08-1.137614734114E-16j
 Sym=  A
 Ene=      -3.2176656696
 Spin= Alpha
 Occup=   2.00000000
     1   -3.125560914126E-01-9.309895836429E-16j
     2   1.023999487249E+00+2.987206114613E-15j
     3   3.539210369729E-08+1.029966907355E-16j
     4   3.539209878978E-08-7.334811321958E-17j
     5   3.539208536466E-08+5.358425427259E-17j
     6   4.277491804154E-02+5.157467154898E-16j
     7   8.654997099007E-09+1.793330580498E-16j
     8   8.654974463252E-09+2.958558575377E-16j
     9   8.654953965702E-09+1.404785529490E-16j
    10   4.393544869909E-04+2.350674797047E-16j
    11   -1.225742603638E-02-1.016961279837E-15j
    12   1.419848048978E-09+1.214085351381E-16j
    13   1.419839947439E-09-1.434468408777E-16j
    14   1.419831577675E-09-1.236535145007E-18j
 Sym=  A
 Ene=      -1.6272165025
 Spin= Alpha
 Occup=   2.00000000
     1   -1.639900354254E-08+3.388038773678E-17j
     2   4.900828508526E-08-2.903330917629E-16j
     3   -5.395826238498E-01+3.305258126814E-07j
     4   -5.395757497147E-01+5.585465381264E-07j
     5   -5.395777497629E-01-8.891845747638E-07j
     6   1.000247612380E-07+9.222013712225E-17j
     7   -9.913684123985E-02+6.072710006616E-08j
     8   -9.913557826371E-02+1.026210365388E-07j
     9   -9.913594573006E-02-1.633687508180E-07j
    10   1.739489639674E-07-1.964305121365E-16j
    11   -6.991318725433E-07+7.498365307867E-16j
    12   -1.747936034916E-03+1.070630707095E-09j
    13   -1.747913768451E-03+1.809222871270E-09j
    14   -1.747920246954E-03-2.880216362868E-09j
 Sym=  A
 Ene=      -1.6272164932
 Spin= Alpha
 Occup=   2.00000000
     1   8.399694429702E-14+2.184286854712E-16j
     2   -2.558542048761E-13-3.596057819234E-16j
     3   -6.709246427594E-01-3.541998777655E-03j
     4   6.465478590405E-01+5.003110848289E-02j
     5   2.438536706632E-02-4.648911036763E-02j
     6   -5.170039527478E-13-1.528204312495E-15j
     7   -1.232681237395E-01-6.507668906253E-04j
     8   1.187894085452E-01+9.192151365804E-03j
     9   4.480292201893E-03-8.541384596910E-03j
    10   -9.231886528954E-13-7.289802668700E-17j
    11   3.706687997302E-12+6.946867656510E-16j
    12   -2.173234755211E-03-1.147311390771E-05j
    13   2.094274363443E-03+1.620589510403E-04j
    14   7.898819683122E-05-1.505858392869E-04j
 Sym=  A
 Ene=      -1.6272164932
 Spin= Alpha
 Occup=   2.00000000
     1   1.793343988205E-14+3.998021081903E-15j
     2   -5.943047904455E-14-7.504361859067E-15j
     3   -2.599770441158E-01+2.540583713056E-01j
     4   -3.411332771904E-01+2.130596187517E-01j
     5   6.011125511950E-01-4.671179922907E-01j
     6   -1.183612691648E-13-1.386624952343E-14j
     7   -4.776524873449E-02+4.667781857341E-02j
     8   -6.267597930431E-02+3.914517037286E-02j
     9   1.104416377335E-01-8.582298935665E-02j
    10   -2.418574629032E-13+2.580137196273E-15j
    11   9.671402456462E-13-6.419075701539E-15j
    12   -8.421082069157E-04+8.229366569149E-04j
    13   -1.104986532046E-03+6.901349854341E-04j
    14   1.947101962523E-03-1.513071649597E-03j
 Sym=  A
 Ene=      -0.6644824735
 Spin= Alpha
 Occup=   2.00000000
     1   3.875278689496E-02+1.978873786609E-16j
     2   -1.486308542534E-01-6.271385398135E-16j
     3   -1.994029477661E-06+3.046623509029E-16j
     4   -1.994029483114E-06+1.998888602439E-15j
     5   -1.994029487753E-06-1.899685356395E-15j
     6   1.985628432541E-01+5.115829201459E-17j
     7   3.447140122356E-06-2.852077550658E-15j
     8   3.447140097506E-06-4.510237358192E-15j
     9   3.447140042351E-06+3.025522578800E-15j
    10   -2.281037102647E-01-1.294750083966E-16j
    11   8.406273556082E-01+4.339997641135E-16j
    12   -4.551802546962E-07+1.979085222552E-15j
    13   -4.551802410600E-07+4.380437727762E-16j
    14   -4.551802260771E-07-1.000082025776E-15j
 Sym=  A
 Ene=       0.2350685232
 Spin= Alpha
 Occup=   2.00000000
     1   -2.661070253082E-14-3.579494241586E-15j
     2   1.046016036719E-13+1.280697121792E-14j
     3   -3.456913060088E-02-9.367285756973E-02j
     4   4.941246805599E-03+7.470067743784E-02j
     5   2.962788393340E-02+1.897217216268E-02j
     6   -2.169635633055E-13-1.145372219953E-14j
     7   5.414651111741E-02+1.467221864025E-01j
     8   -7.739600922632E-03-1.170055766825E-01j
     9   -4.640691041107E-02-2.971659723790E-02j
    10   -3.942412515197E-14+3.575519185602E-14j
    11   2.175337008292E-13-1.213904261198E-13j
    12   -2.568397558210E-01-6.959652570688E-01j
    13   3.671219382560E-02+5.550068346899E-01j
    14   2.201275630220E-01+1.409583631675E-01j
 Sym=  A
 Ene=       0.2350685232
 Spin= Alpha
 Occup=   2.00000000
     1   5.870118999641E-14+9.736994174204E-17j
     2   -2.310271828275E-13-2.568161607913E-16j
     3   2.993857378813E-02-1.849451897743E-02j
     4   6.947054844920E-02+2.787883266363E-02j
     5   -9.940912330026E-02-9.384313923790E-03j
     6   4.805816112444E-13+6.153583136391E-16j
     7   -4.689355185625E-02+2.896843686885E-02j
     8   -1.088134922271E-01-4.366732678903E-02j
     9   1.557070457481E-01+1.469889029231E-02j
    10   8.927192831232E-14+9.095980190640E-16j
    11   -4.894102453713E-13-1.781107530835E-15j
    12   2.224359087927E-01-1.374095227627E-01j
    13   5.161483204903E-01+2.071325616074E-01j
    14   -7.385842371814E-01-6.972304061016E-02j
 Sym=  A
 Ene=       0.2350715336
 Spin= Alpha
 Occup=   2.00000000
     1   1.189727858608E-06-1.335634962378E-16j
     2   -4.727055242852E-06+4.380693734458E-16j
     3   -7.485650624272E-02-1.177549033619E-09j
     4   -7.485651242949E-02+1.504525567162E-10j
     5   -7.485650959784E-02+9.899003139607E-10j
     6   1.025698924203E-05-5.105025759749E-16j
     7   1.172475319850E-01+1.844432699356E-09j
     8   1.172475416755E-01-2.356641228050E-10j
     9   1.172475372402E-01-1.550505069763E-09j
    10   2.899105330874E-06+2.273487027848E-16j
    11   -1.389451191276E-05-1.485214091505E-15j
    12   -5.561916243355E-01-8.748810723747E-09j
    13   -5.561916703020E-01+1.117756391335E-09j
    14   -5.561916492638E-01+7.354720900359E-09j
 Sym=  A
 Ene=       0.7551226369
 Spin= Alpha
 Occup=   0.00000000
     1   -1.031380108647E-01+1.772741870499E-16j
     2   4.095423268203E-01-5.343542545011E-16j
     3   -7.025989799938E-06+1.833124786692E-15j
     4   -7.025989653222E-06+1.010896459578E-14j
     5   -7.025989542864E-06-9.861158757850E-15j
     6   -8.689074049180E-01-1.291030808371E-16j
     7   1.544478562949E-05-5.312886231225E-15j
     8   1.544478525591E-05-2.262147643927E-14j
     9   1.544478496883E-05+2.203643518541E-14j
    10   -1.766502016387E-01+5.818385791059E-18j
    11   9.058214756075E-01+1.422195392346E-16j
    12   -3.779892409799E-06-1.067244105177E-14j
    13   -3.779893000627E-06-1.732501694119E-14j
    14   -3.779893584137E-06+2.252768589450E-14j
 Sym=  A
 Ene=       1.5621438053
 Spin= Alpha
 Occup=   0.00000000
     1   -1.758575956248E-06+1.428455992816E-17j
     2   7.034030647352E-06-8.216264008936E-18j
     3   3.548329294038E-01-4.289147669307E-09j
     4   3.548328770707E-01+1.935453092621E-09j
     5   3.548329094157E-01+2.256145494848E-09j
     6   -1.583057964694E-05-5.049798939295E-16j
     7   -8.675708833059E-01+1.048700907935E-08j
     8   -8.675707553508E-01-4.732203556024E-09j
     9   -8.675708344348E-01-5.516289202727E-09j
    10   -4.944253004586E-06-4.707259857729E-16j
    11   2.331854442023E-05+1.334983101934E-15j
    12   -2.291472292827E-01+2.769957136919E-09j
    13   -2.291471954855E-01-1.249914181202E-09j
    14   -2.291472163741E-01-1.457037673386E-09j
 Sym=  A
 Ene=       1.5621543374
 Spin= Alpha
 Occup=   0.00000000
     1   6.571457649017E-14+6.855444867038E-15j
     2   -2.612918913848E-13-2.742343986946E-14j
     3   4.590113935987E-01-1.571485899927E-01j
     4   -3.348150700781E-01+4.352277963526E-02j
     5   -1.241963827569E-01+1.136258150128E-01j
     6   6.312675621309E-13+4.259320087851E-14j
     7   -1.122289887010E+00+3.842307092291E-01j
     8   8.186279739620E-01-1.064138627503E-01j
     9   3.036620578815E-01-2.778168578612E-01j
    10   2.228774558542E-13+2.553538008992E-15j
    11   -1.020639533570E-12-2.388147332591E-14j
    12   -2.964337153012E-01+1.014879827287E-01j
    13   2.162266047116E-01-2.810740527886E-02j
    14   8.020714884372E-02-7.338058045615E-02j
 Sym=  A
 Ene=       1.5621543374
 Spin= Alpha
 Occup=   0.00000000
     1   -7.186121524331E-14+3.694496247765E-15j
     2   2.870103045793E-13-1.474210409989E-14j
     3   9.125333072558E-02-8.998733324235E-02j
     4   3.711433034689E-01-8.327738781213E-03j
     5   -4.623966071704E-01+9.831507431482E-02j
     6   -6.109376090024E-13+2.096693962356E-14j
     7   -2.231157911493E-01+2.200204079143E-01j
     8   -9.074510609616E-01+2.036144885760E-02j
     9   1.130566786037E+00-2.403818623740E-01j
    10   -1.733285474560E-13+1.248016028406E-15j
    11   8.360583044807E-13-1.069126247866E-14j
    12   -5.893222747347E-02+5.811463483274E-02j
    13   -2.396877068641E-01+5.378129130104E-03j
    14   2.986199168856E-01-6.349276544249E-02j
